[Molden Format]
made by pyscf v[2.13.1]
[Atoms] (AU)
Pb   1   22    -0.37070568412980    -0.21285497121876    -0.32154445899924
I   2   25     5.58850218598525     0.08503767560543    -0.04636632019233
I   3   25     0.24034103770056     5.44591479098232     0.29022602793683
I   4   25    -0.06877469257742     0.19772582386549     5.39917241529121
I   5   25    -5.73934768415254     0.06340976010978    -0.05216966912087
I   6   25     0.46479136841965    -5.68875782607180     0.18865513846758
I   7   25     0.53798046122405     0.54133661482128    -5.80871764045919
Pb   8   22    -0.45262531162970    -0.38588774381456    11.21800009051682
I   9   25     5.26379621517961     0.04590711674406    10.60423027334096
I   10   25    -0.12734297435607     5.33048465011551    10.84555018917404
I   11   25    -0.09908212016320     0.01536536311884    16.64040668850955
I   12   25    -5.95671721108288    -0.04025116645324    10.74342372022418
I   13   25     0.26176675250088    -5.84882329800084    10.30736185807629
C   14   6    -5.77731606144730    -6.12134259215049     3.76866191295886
N   15   7    -4.61256446731038    -4.51164742308023     5.78621100231562
H   16   1    -5.93693933746318    -3.82387593086640     7.07628545358145
H   17   1    -3.21460366186700    -5.49664070934402     6.82047511782520
H   18   1    -3.70248937325496    -2.91855349801427     4.97017623912307
H   19   1    -6.72168968466357    -7.79776777013140     4.55189103062896
H   20   1    -4.29619785789244    -6.75983947566628     2.39512959712774
H   21   1    -7.15490183981561    -5.02505199605431     2.62681001999941
C   22   6    -7.03916367359050     4.59529803971022     5.34328754460944
N   23   7    -4.41703828465388     5.66493971799779     5.44473938133284
H   24   1    -3.06207819717498     4.20574422721401     5.55572488635467
H   25   1    -4.02569868096995     6.74094788359901     3.81564428386779
H   26   1    -4.19135585250157     6.84311214707137     7.03285954723895
H   27   1    -7.26450406531426     3.34439950073275     3.66090594988391
H   28   1    -8.47101860680407     6.10566164476885     5.23112285048588
H   29   1    -7.43324715960729     3.42568229052867     7.04893166792837
C   30   6    -6.12480457041069     6.93473740794703    16.78195851359623
N   31   7    -4.79328086632866     4.86932722503340    15.37543157963020
H   32   1    -6.04136371338052     3.67619194450551    14.41141425334908
H   33   1    -3.55680660685999     5.65746774090126    13.99240527974927
H   34   1    -3.67290760050102     3.74070341494592    16.56030875699374
H   35   1    -7.20023259009167     8.16720733775774    15.45477173097006
H   36   1    -4.72969158223704     8.21689201702481    17.71362183889867
H   37   1    -7.42577707223689     6.19611149599503    18.22317515003089
C   38   6     6.32864554801528    -6.74473489475264     5.40592251700815
N   39   7     4.93396530712415    -4.28351779559661     5.28766345613287
H   40   1     3.72246566811774    -4.22678065843267     3.70196402939233
H   41   1     3.82523653367609    -4.01639744898484     6.92008258185103
H   42   1     6.19887049613690    -2.75801181510184     5.15239497041038
H   43   1     5.01684491549533    -8.35218317946079     5.57521741132956
H   44   1     7.63684814199406    -6.78561911945760     7.06512095163752
H   45   1     7.50469014547260    -7.02661022294501     3.68432721547177
C   46   6     3.79123469151679    -6.08257864015729    16.65556607148082
N   47   7     5.76016490714074    -4.65226950291361    15.20742358879962
H   48   1     4.90236152741693    -3.55770044731691    13.75825687455891
H   49   1     6.76950353506731    -3.38648748097907    16.35501835945161
H   50   1     7.07790683859633    -5.84302372852455    14.32285412824746
H   51   1     2.39589871566044    -4.75255537861815    17.52163133382123
H   52   1     4.61900465394289    -7.25470394563226    18.15802117270814
H   53   1     2.66232364305837    -7.30901089500001    15.37299383292951
C   54   6     6.41415376542572     5.08968062951444    -6.64676771300293
N   55   7     5.30109751915240     5.70617732148804    -4.11596333903592
H   56   1     4.30238293149814     4.15125397441218    -3.37935187513271
H   57   1     6.72109820038658     6.18964863264902    -2.81458076664070
H   58   1     4.03356750055264     7.24212970799941    -4.24997326715945
H   59   1     7.75121247732661     3.46812364956028    -6.50752702296661
H   60   1     7.48605744588439     6.72766688839556    -7.40631667260612
H   61   1     4.92639695399527     4.57296714609624    -8.01583649572783
C   62   6     6.49186308312009     5.47112562721014     4.32269370788497
N   63   7     4.43355449098258     5.39878880088792     6.25289587631209
H   64   1     3.00545822303077     6.69772417795183     5.79769864742686
H   65   1     3.62410920278638     3.59466726976565     6.35006181418497
H   66   1     5.14184462945693     5.86913974356604     8.03867383594320
H   67   1     5.77072280699869     4.93827766214041     2.42907096805105
H   68   1     8.04693760828592     4.15821950490732     4.82809718044764
H   69   1     7.31884691947837     7.39819840917499     4.17498326535834
[GTO]
1 0
 s    6 1.00
          55.727520333  0.0030229398792401
          20.302912827   -0.14617744364668
           14.55862875    0.38247858446898
          6.5370530973   -0.68495343489743
          1.5933900686    0.97658689205599
         0.83051419711    0.33195675186838
 s    2 1.00
          8.0719473648  -0.064432974600192
           1.416573749     1.0374469808883
 s    1 1.00
          0.2041893337                   1
 s    1 1.00
        0.077159007761                   1
 p    4 1.00
          9.5531412199    0.55073462105566
          7.5327685129   -0.97604901828593
          1.1185539567    0.86371664043596
         0.53739855255    0.25918281328032
 p    1 1.00
          2.1359869828                   1
 p    1 1.00
         0.20027494801                   1
 p    1 1.00
        0.063408011513                   1
 d    5 1.00
          13.494505735   0.011860978800904
          7.0609770411  -0.068419120498775
          2.1581835375    0.34830169166445
          1.0148541418    0.49738884511814
          0.4463267292    0.30426691151759
 d    1 1.00
                 0.175                   1

2 0
 s    6 1.00
          445.90489176  0.0022025754561624
          23.336842412   -0.16476917790558
          19.583446104    0.40052364264037
          8.5112089186   -0.83034405336891
          2.1996161861    0.91034903894187
          1.0668970454    0.46345033669896
 s    2 1.00
          11.720547572  -0.046972984527237
          1.7625986449     1.0252380966471
 s    1 1.00
         0.28697476318                   1
 s    1 1.00
         0.11227609607                   1
 p    4 1.00
          20.499027254   0.084562108576311
          10.558754576   -0.42051679185026
          1.5015895485     0.9157047730546
         0.64597173095    0.18397852281308
 p    1 1.00
          3.0288656771                   1
 p    1 1.00
         0.34506591841                   1
 p    1 1.00
         0.11134513813                   1
 d    5 1.00
           51.23535492  0.0041015169444301
          15.616239482  -0.0051611249493146
          4.5266002139    0.29635196981753
          2.0529808766    0.51995196518892
         0.87640281623    0.31750716843876
 d    1 1.00
                 0.309                   1

3 0
 s    6 1.00
          445.90489176  0.0022025754561624
          23.336842412   -0.16476917790558
          19.583446104    0.40052364264037
          8.5112089186   -0.83034405336891
          2.1996161861    0.91034903894187
          1.0668970454    0.46345033669896
 s    2 1.00
          11.720547572  -0.046972984527237
          1.7625986449     1.0252380966471
 s    1 1.00
         0.28697476318                   1
 s    1 1.00
         0.11227609607                   1
 p    4 1.00
          20.499027254   0.084562108576311
          10.558754576   -0.42051679185026
          1.5015895485     0.9157047730546
         0.64597173095    0.18397852281308
 p    1 1.00
          3.0288656771                   1
 p    1 1.00
         0.34506591841                   1
 p    1 1.00
         0.11134513813                   1
 d    5 1.00
           51.23535492  0.0041015169444301
          15.616239482  -0.0051611249493146
          4.5266002139    0.29635196981753
          2.0529808766    0.51995196518892
         0.87640281623    0.31750716843876
 d    1 1.00
                 0.309                   1

4 0
 s    6 1.00
          445.90489176  0.0022025754561624
          23.336842412   -0.16476917790558
          19.583446104    0.40052364264037
          8.5112089186   -0.83034405336891
          2.1996161861    0.91034903894187
          1.0668970454    0.46345033669896
 s    2 1.00
          11.720547572  -0.046972984527237
          1.7625986449     1.0252380966471
 s    1 1.00
         0.28697476318                   1
 s    1 1.00
         0.11227609607                   1
 p    4 1.00
          20.499027254   0.084562108576311
          10.558754576   -0.42051679185026
          1.5015895485     0.9157047730546
         0.64597173095    0.18397852281308
 p    1 1.00
          3.0288656771                   1
 p    1 1.00
         0.34506591841                   1
 p    1 1.00
         0.11134513813                   1
 d    5 1.00
           51.23535492  0.0041015169444301
          15.616239482  -0.0051611249493146
          4.5266002139    0.29635196981753
          2.0529808766    0.51995196518892
         0.87640281623    0.31750716843876
 d    1 1.00
                 0.309                   1

5 0
 s    6 1.00
          445.90489176  0.0022025754561624
          23.336842412   -0.16476917790558
          19.583446104    0.40052364264037
          8.5112089186   -0.83034405336891
          2.1996161861    0.91034903894187
          1.0668970454    0.46345033669896
 s    2 1.00
          11.720547572  -0.046972984527237
          1.7625986449     1.0252380966471
 s    1 1.00
         0.28697476318                   1
 s    1 1.00
         0.11227609607                   1
 p    4 1.00
          20.499027254   0.084562108576311
          10.558754576   -0.42051679185026
          1.5015895485     0.9157047730546
         0.64597173095    0.18397852281308
 p    1 1.00
          3.0288656771                   1
 p    1 1.00
         0.34506591841                   1
 p    1 1.00
         0.11134513813                   1
 d    5 1.00
           51.23535492  0.0041015169444301
          15.616239482  -0.0051611249493146
          4.5266002139    0.29635196981753
          2.0529808766    0.51995196518892
         0.87640281623    0.31750716843876
 d    1 1.00
                 0.309                   1

6 0
 s    6 1.00
          445.90489176  0.0022025754561624
          23.336842412   -0.16476917790558
          19.583446104    0.40052364264037
          8.5112089186   -0.83034405336891
          2.1996161861    0.91034903894187
          1.0668970454    0.46345033669896
 s    2 1.00
          11.720547572  -0.046972984527237
          1.7625986449     1.0252380966471
 s    1 1.00
         0.28697476318                   1
 s    1 1.00
         0.11227609607                   1
 p    4 1.00
          20.499027254   0.084562108576311
          10.558754576   -0.42051679185026
          1.5015895485     0.9157047730546
         0.64597173095    0.18397852281308
 p    1 1.00
          3.0288656771                   1
 p    1 1.00
         0.34506591841                   1
 p    1 1.00
         0.11134513813                   1
 d    5 1.00
           51.23535492  0.0041015169444301
          15.616239482  -0.0051611249493146
          4.5266002139    0.29635196981753
          2.0529808766    0.51995196518892
         0.87640281623    0.31750716843876
 d    1 1.00
                 0.309                   1

7 0
 s    6 1.00
          445.90489176  0.0022025754561624
          23.336842412   -0.16476917790558
          19.583446104    0.40052364264037
          8.5112089186   -0.83034405336891
          2.1996161861    0.91034903894187
          1.0668970454    0.46345033669896
 s    2 1.00
          11.720547572  -0.046972984527237
          1.7625986449     1.0252380966471
 s    1 1.00
         0.28697476318                   1
 s    1 1.00
         0.11227609607                   1
 p    4 1.00
          20.499027254   0.084562108576311
          10.558754576   -0.42051679185026
          1.5015895485     0.9157047730546
         0.64597173095    0.18397852281308
 p    1 1.00
          3.0288656771                   1
 p    1 1.00
         0.34506591841                   1
 p    1 1.00
         0.11134513813                   1
 d    5 1.00
           51.23535492  0.0041015169444301
          15.616239482  -0.0051611249493146
          4.5266002139    0.29635196981753
          2.0529808766    0.51995196518892
         0.87640281623    0.31750716843876
 d    1 1.00
                 0.309                   1

8 0
 s    6 1.00
          55.727520333  0.0030229398792401
          20.302912827   -0.14617744364668
           14.55862875    0.38247858446898
          6.5370530973   -0.68495343489743
          1.5933900686    0.97658689205599
         0.83051419711    0.33195675186838
 s    2 1.00
          8.0719473648  -0.064432974600192
           1.416573749     1.0374469808883
 s    1 1.00
          0.2041893337                   1
 s    1 1.00
        0.077159007761                   1
 p    4 1.00
          9.5531412199    0.55073462105566
          7.5327685129   -0.97604901828593
          1.1185539567    0.86371664043596
         0.53739855255    0.25918281328032
 p    1 1.00
          2.1359869828                   1
 p    1 1.00
         0.20027494801                   1
 p    1 1.00
        0.063408011513                   1
 d    5 1.00
          13.494505735   0.011860978800904
          7.0609770411  -0.068419120498775
          2.1581835375    0.34830169166445
          1.0148541418    0.49738884511814
          0.4463267292    0.30426691151759
 d    1 1.00
                 0.175                   1

9 0
 s    6 1.00
          445.90489176  0.0022025754561624
          23.336842412   -0.16476917790558
          19.583446104    0.40052364264037
          8.5112089186   -0.83034405336891
          2.1996161861    0.91034903894187
          1.0668970454    0.46345033669896
 s    2 1.00
          11.720547572  -0.046972984527237
          1.7625986449     1.0252380966471
 s    1 1.00
         0.28697476318                   1
 s    1 1.00
         0.11227609607                   1
 p    4 1.00
          20.499027254   0.084562108576311
          10.558754576   -0.42051679185026
          1.5015895485     0.9157047730546
         0.64597173095    0.18397852281308
 p    1 1.00
          3.0288656771                   1
 p    1 1.00
         0.34506591841                   1
 p    1 1.00
         0.11134513813                   1
 d    5 1.00
           51.23535492  0.0041015169444301
          15.616239482  -0.0051611249493146
          4.5266002139    0.29635196981753
          2.0529808766    0.51995196518892
         0.87640281623    0.31750716843876
 d    1 1.00
                 0.309                   1

10 0
 s    6 1.00
          445.90489176  0.0022025754561624
          23.336842412   -0.16476917790558
          19.583446104    0.40052364264037
          8.5112089186   -0.83034405336891
          2.1996161861    0.91034903894187
          1.0668970454    0.46345033669896
 s    2 1.00
          11.720547572  -0.046972984527237
          1.7625986449     1.0252380966471
 s    1 1.00
         0.28697476318                   1
 s    1 1.00
         0.11227609607                   1
 p    4 1.00
          20.499027254   0.084562108576311
          10.558754576   -0.42051679185026
          1.5015895485     0.9157047730546
         0.64597173095    0.18397852281308
 p    1 1.00
          3.0288656771                   1
 p    1 1.00
         0.34506591841                   1
 p    1 1.00
         0.11134513813                   1
 d    5 1.00
           51.23535492  0.0041015169444301
          15.616239482  -0.0051611249493146
          4.5266002139    0.29635196981753
          2.0529808766    0.51995196518892
         0.87640281623    0.31750716843876
 d    1 1.00
                 0.309                   1

11 0
 s    6 1.00
          445.90489176  0.0022025754561624
          23.336842412   -0.16476917790558
          19.583446104    0.40052364264037
          8.5112089186   -0.83034405336891
          2.1996161861    0.91034903894187
          1.0668970454    0.46345033669896
 s    2 1.00
          11.720547572  -0.046972984527237
          1.7625986449     1.0252380966471
 s    1 1.00
         0.28697476318                   1
 s    1 1.00
         0.11227609607                   1
 p    4 1.00
          20.499027254   0.084562108576311
          10.558754576   -0.42051679185026
          1.5015895485     0.9157047730546
         0.64597173095    0.18397852281308
 p    1 1.00
          3.0288656771                   1
 p    1 1.00
         0.34506591841                   1
 p    1 1.00
         0.11134513813                   1
 d    5 1.00
           51.23535492  0.0041015169444301
          15.616239482  -0.0051611249493146
          4.5266002139    0.29635196981753
          2.0529808766    0.51995196518892
         0.87640281623    0.31750716843876
 d    1 1.00
                 0.309                   1

12 0
 s    6 1.00
          445.90489176  0.0022025754561624
          23.336842412   -0.16476917790558
          19.583446104    0.40052364264037
          8.5112089186   -0.83034405336891
          2.1996161861    0.91034903894187
          1.0668970454    0.46345033669896
 s    2 1.00
          11.720547572  -0.046972984527237
          1.7625986449     1.0252380966471
 s    1 1.00
         0.28697476318                   1
 s    1 1.00
         0.11227609607                   1
 p    4 1.00
          20.499027254   0.084562108576311
          10.558754576   -0.42051679185026
          1.5015895485     0.9157047730546
         0.64597173095    0.18397852281308
 p    1 1.00
          3.0288656771                   1
 p    1 1.00
         0.34506591841                   1
 p    1 1.00
         0.11134513813                   1
 d    5 1.00
           51.23535492  0.0041015169444301
          15.616239482  -0.0051611249493146
          4.5266002139    0.29635196981753
          2.0529808766    0.51995196518892
         0.87640281623    0.31750716843876
 d    1 1.00
                 0.309                   1

13 0
 s    6 1.00
          445.90489176  0.0022025754561624
          23.336842412   -0.16476917790558
          19.583446104    0.40052364264037
          8.5112089186   -0.83034405336891
          2.1996161861    0.91034903894187
          1.0668970454    0.46345033669896
 s    2 1.00
          11.720547572  -0.046972984527237
          1.7625986449     1.0252380966471
 s    1 1.00
         0.28697476318                   1
 s    1 1.00
         0.11227609607                   1
 p    4 1.00
          20.499027254   0.084562108576311
          10.558754576   -0.42051679185026
          1.5015895485     0.9157047730546
         0.64597173095    0.18397852281308
 p    1 1.00
          3.0288656771                   1
 p    1 1.00
         0.34506591841                   1
 p    1 1.00
         0.11134513813                   1
 d    5 1.00
           51.23535492  0.0041015169444301
          15.616239482  -0.0051611249493146
          4.5266002139    0.29635196981753
          2.0529808766    0.51995196518892
         0.87640281623    0.31750716843876
 d    1 1.00
                 0.309                   1

14 0
 s    5 1.00
          1238.4016938  0.0055173650481097
          186.29004992   0.041088828555946
          42.251176346     0.1822538212649
          11.676557932    0.46828459437429
          3.5930506482    0.44575817336002
 s    1 1.00
         0.40245147363                   1
 s    1 1.00
         0.13090182668                   1
 p    3 1.00
          9.4680970621   0.056888332011037
          2.0103545142    0.31294059336471
         0.54771004707    0.76065016509135
 p    1 1.00
         0.15268613795                   1
 d    1 1.00
                   0.8                   1

15 0
 s    5 1.00
          1712.8415853  -0.0054477995804909
          257.64812677  -0.040627174632423
          58.458245853   -0.18111962250584
          16.198367905   -0.46843975563173
          5.0052600809   -0.44616846289231
 s    1 1.00
         0.58731856571                   1
 s    1 1.00
         0.18764592253                   1
 p    3 1.00
          13.571470233  -0.058848116969522
          2.9257372874   -0.32024624762471
         0.79927750754   -0.75328226520436
 p    1 1.00
         0.21954348034                   1
 d    1 1.00
                     1                   1

16 0
 s    3 1.00
             13.010701   0.033485484812989
             1.9622572    0.23472187088125
            0.44453796    0.81377028525955
 s    1 1.00
            0.12194962                   1
 p    1 1.00
                   0.8                   1

17 0
 s    3 1.00
             13.010701   0.033485484812989
             1.9622572    0.23472187088125
            0.44453796    0.81377028525955
 s    1 1.00
            0.12194962                   1
 p    1 1.00
                   0.8                   1

18 0
 s    3 1.00
             13.010701   0.033485484812989
             1.9622572    0.23472187088125
            0.44453796    0.81377028525955
 s    1 1.00
            0.12194962                   1
 p    1 1.00
                   0.8                   1

19 0
 s    3 1.00
             13.010701   0.033485484812989
             1.9622572    0.23472187088125
            0.44453796    0.81377028525955
 s    1 1.00
            0.12194962                   1
 p    1 1.00
                   0.8                   1

20 0
 s    3 1.00
             13.010701   0.033485484812989
             1.9622572    0.23472187088125
            0.44453796    0.81377028525955
 s    1 1.00
            0.12194962                   1
 p    1 1.00
                   0.8                   1

21 0
 s    3 1.00
             13.010701   0.033485484812989
             1.9622572    0.23472187088125
            0.44453796    0.81377028525955
 s    1 1.00
            0.12194962                   1
 p    1 1.00
                   0.8                   1

22 0
 s    5 1.00
          1238.4016938  0.0055173650481097
          186.29004992   0.041088828555946
          42.251176346     0.1822538212649
          11.676557932    0.46828459437429
          3.5930506482    0.44575817336002
 s    1 1.00
         0.40245147363                   1
 s    1 1.00
         0.13090182668                   1
 p    3 1.00
          9.4680970621   0.056888332011037
          2.0103545142    0.31294059336471
         0.54771004707    0.76065016509135
 p    1 1.00
         0.15268613795                   1
 d    1 1.00
                   0.8                   1

23 0
 s    5 1.00
          1712.8415853  -0.0054477995804909
          257.64812677  -0.040627174632423
          58.458245853   -0.18111962250584
          16.198367905   -0.46843975563173
          5.0052600809   -0.44616846289231
 s    1 1.00
         0.58731856571                   1
 s    1 1.00
         0.18764592253                   1
 p    3 1.00
          13.571470233  -0.058848116969522
          2.9257372874   -0.32024624762471
         0.79927750754   -0.75328226520436
 p    1 1.00
         0.21954348034                   1
 d    1 1.00
                     1                   1

24 0
 s    3 1.00
             13.010701   0.033485484812989
             1.9622572    0.23472187088125
            0.44453796    0.81377028525955
 s    1 1.00
            0.12194962                   1
 p    1 1.00
                   0.8                   1

25 0
 s    3 1.00
             13.010701   0.033485484812989
             1.9622572    0.23472187088125
            0.44453796    0.81377028525955
 s    1 1.00
            0.12194962                   1
 p    1 1.00
                   0.8                   1

26 0
 s    3 1.00
             13.010701   0.033485484812989
             1.9622572    0.23472187088125
            0.44453796    0.81377028525955
 s    1 1.00
            0.12194962                   1
 p    1 1.00
                   0.8                   1

27 0
 s    3 1.00
             13.010701   0.033485484812989
             1.9622572    0.23472187088125
            0.44453796    0.81377028525955
 s    1 1.00
            0.12194962                   1
 p    1 1.00
                   0.8                   1

28 0
 s    3 1.00
             13.010701   0.033485484812989
             1.9622572    0.23472187088125
            0.44453796    0.81377028525955
 s    1 1.00
            0.12194962                   1
 p    1 1.00
                   0.8                   1

29 0
 s    3 1.00
             13.010701   0.033485484812989
             1.9622572    0.23472187088125
            0.44453796    0.81377028525955
 s    1 1.00
            0.12194962                   1
 p    1 1.00
                   0.8                   1

30 0
 s    5 1.00
          1238.4016938  0.0055173650481097
          186.29004992   0.041088828555946
          42.251176346     0.1822538212649
          11.676557932    0.46828459437429
          3.5930506482    0.44575817336002
 s    1 1.00
         0.40245147363                   1
 s    1 1.00
         0.13090182668                   1
 p    3 1.00
          9.4680970621   0.056888332011037
          2.0103545142    0.31294059336471
         0.54771004707    0.76065016509135
 p    1 1.00
         0.15268613795                   1
 d    1 1.00
                   0.8                   1

31 0
 s    5 1.00
          1712.8415853  -0.0054477995804909
          257.64812677  -0.040627174632423
          58.458245853   -0.18111962250584
          16.198367905   -0.46843975563173
          5.0052600809   -0.44616846289231
 s    1 1.00
         0.58731856571                   1
 s    1 1.00
         0.18764592253                   1
 p    3 1.00
          13.571470233  -0.058848116969522
          2.9257372874   -0.32024624762471
         0.79927750754   -0.75328226520436
 p    1 1.00
         0.21954348034                   1
 d    1 1.00
                     1                   1

32 0
 s    3 1.00
             13.010701   0.033485484812989
             1.9622572    0.23472187088125
            0.44453796    0.81377028525955
 s    1 1.00
            0.12194962                   1
 p    1 1.00
                   0.8                   1

33 0
 s    3 1.00
             13.010701   0.033485484812989
             1.9622572    0.23472187088125
            0.44453796    0.81377028525955
 s    1 1.00
            0.12194962                   1
 p    1 1.00
                   0.8                   1

34 0
 s    3 1.00
             13.010701   0.033485484812989
             1.9622572    0.23472187088125
            0.44453796    0.81377028525955
 s    1 1.00
            0.12194962                   1
 p    1 1.00
                   0.8                   1

35 0
 s    3 1.00
             13.010701   0.033485484812989
             1.9622572    0.23472187088125
            0.44453796    0.81377028525955
 s    1 1.00
            0.12194962                   1
 p    1 1.00
                   0.8                   1

36 0
 s    3 1.00
             13.010701   0.033485484812989
             1.9622572    0.23472187088125
            0.44453796    0.81377028525955
 s    1 1.00
            0.12194962                   1
 p    1 1.00
                   0.8                   1

37 0
 s    3 1.00
             13.010701   0.033485484812989
             1.9622572    0.23472187088125
            0.44453796    0.81377028525955
 s    1 1.00
            0.12194962                   1
 p    1 1.00
                   0.8                   1

38 0
 s    5 1.00
          1238.4016938  0.0055173650481097
          186.29004992   0.041088828555946
          42.251176346     0.1822538212649
          11.676557932    0.46828459437429
          3.5930506482    0.44575817336002
 s    1 1.00
         0.40245147363                   1
 s    1 1.00
         0.13090182668                   1
 p    3 1.00
          9.4680970621   0.056888332011037
          2.0103545142    0.31294059336471
         0.54771004707    0.76065016509135
 p    1 1.00
         0.15268613795                   1
 d    1 1.00
                   0.8                   1

39 0
 s    5 1.00
          1712.8415853  -0.0054477995804909
          257.64812677  -0.040627174632423
          58.458245853   -0.18111962250584
          16.198367905   -0.46843975563173
          5.0052600809   -0.44616846289231
 s    1 1.00
         0.58731856571                   1
 s    1 1.00
         0.18764592253                   1
 p    3 1.00
          13.571470233  -0.058848116969522
          2.9257372874   -0.32024624762471
         0.79927750754   -0.75328226520436
 p    1 1.00
         0.21954348034                   1
 d    1 1.00
                     1                   1

40 0
 s    3 1.00
             13.010701   0.033485484812989
             1.9622572    0.23472187088125
            0.44453796    0.81377028525955
 s    1 1.00
            0.12194962                   1
 p    1 1.00
                   0.8                   1

41 0
 s    3 1.00
             13.010701   0.033485484812989
             1.9622572    0.23472187088125
            0.44453796    0.81377028525955
 s    1 1.00
            0.12194962                   1
 p    1 1.00
                   0.8                   1

42 0
 s    3 1.00
             13.010701   0.033485484812989
             1.9622572    0.23472187088125
            0.44453796    0.81377028525955
 s    1 1.00
            0.12194962                   1
 p    1 1.00
                   0.8                   1

43 0
 s    3 1.00
             13.010701   0.033485484812989
             1.9622572    0.23472187088125
            0.44453796    0.81377028525955
 s    1 1.00
            0.12194962                   1
 p    1 1.00
                   0.8                   1

44 0
 s    3 1.00
             13.010701   0.033485484812989
             1.9622572    0.23472187088125
            0.44453796    0.81377028525955
 s    1 1.00
            0.12194962                   1
 p    1 1.00
                   0.8                   1

45 0
 s    3 1.00
             13.010701   0.033485484812989
             1.9622572    0.23472187088125
            0.44453796    0.81377028525955
 s    1 1.00
            0.12194962                   1
 p    1 1.00
                   0.8                   1

46 0
 s    5 1.00
          1238.4016938  0.0055173650481097
          186.29004992   0.041088828555946
          42.251176346     0.1822538212649
          11.676557932    0.46828459437429
          3.5930506482    0.44575817336002
 s    1 1.00
         0.40245147363                   1
 s    1 1.00
         0.13090182668                   1
 p    3 1.00
          9.4680970621   0.056888332011037
          2.0103545142    0.31294059336471
         0.54771004707    0.76065016509135
 p    1 1.00
         0.15268613795                   1
 d    1 1.00
                   0.8                   1

47 0
 s    5 1.00
          1712.8415853  -0.0054477995804909
          257.64812677  -0.040627174632423
          58.458245853   -0.18111962250584
          16.198367905   -0.46843975563173
          5.0052600809   -0.44616846289231
 s    1 1.00
         0.58731856571                   1
 s    1 1.00
         0.18764592253                   1
 p    3 1.00
          13.571470233  -0.058848116969522
          2.9257372874   -0.32024624762471
         0.79927750754   -0.75328226520436
 p    1 1.00
         0.21954348034                   1
 d    1 1.00
                     1                   1

48 0
 s    3 1.00
             13.010701   0.033485484812989
             1.9622572    0.23472187088125
            0.44453796    0.81377028525955
 s    1 1.00
            0.12194962                   1
 p    1 1.00
                   0.8                   1

49 0
 s    3 1.00
             13.010701   0.033485484812989
             1.9622572    0.23472187088125
            0.44453796    0.81377028525955
 s    1 1.00
            0.12194962                   1
 p    1 1.00
                   0.8                   1

50 0
 s    3 1.00
             13.010701   0.033485484812989
             1.9622572    0.23472187088125
            0.44453796    0.81377028525955
 s    1 1.00
            0.12194962                   1
 p    1 1.00
                   0.8                   1

51 0
 s    3 1.00
             13.010701   0.033485484812989
             1.9622572    0.23472187088125
            0.44453796    0.81377028525955
 s    1 1.00
            0.12194962                   1
 p    1 1.00
                   0.8                   1

52 0
 s    3 1.00
             13.010701   0.033485484812989
             1.9622572    0.23472187088125
            0.44453796    0.81377028525955
 s    1 1.00
            0.12194962                   1
 p    1 1.00
                   0.8                   1

53 0
 s    3 1.00
             13.010701   0.033485484812989
             1.9622572    0.23472187088125
            0.44453796    0.81377028525955
 s    1 1.00
            0.12194962                   1
 p    1 1.00
                   0.8                   1

54 0
 s    5 1.00
          1238.4016938  0.0055173650481097
          186.29004992   0.041088828555946
          42.251176346     0.1822538212649
          11.676557932    0.46828459437429
          3.5930506482    0.44575817336002
 s    1 1.00
         0.40245147363                   1
 s    1 1.00
         0.13090182668                   1
 p    3 1.00
          9.4680970621   0.056888332011037
          2.0103545142    0.31294059336471
         0.54771004707    0.76065016509135
 p    1 1.00
         0.15268613795                   1
 d    1 1.00
                   0.8                   1

55 0
 s    5 1.00
          1712.8415853  -0.0054477995804909
          257.64812677  -0.040627174632423
          58.458245853   -0.18111962250584
          16.198367905   -0.46843975563173
          5.0052600809   -0.44616846289231
 s    1 1.00
         0.58731856571                   1
 s    1 1.00
         0.18764592253                   1
 p    3 1.00
          13.571470233  -0.058848116969522
          2.9257372874   -0.32024624762471
         0.79927750754   -0.75328226520436
 p    1 1.00
         0.21954348034                   1
 d    1 1.00
                     1                   1

56 0
 s    3 1.00
             13.010701   0.033485484812989
             1.9622572    0.23472187088125
            0.44453796    0.81377028525955
 s    1 1.00
            0.12194962                   1
 p    1 1.00
                   0.8                   1

57 0
 s    3 1.00
             13.010701   0.033485484812989
             1.9622572    0.23472187088125
            0.44453796    0.81377028525955
 s    1 1.00
            0.12194962                   1
 p    1 1.00
                   0.8                   1

58 0
 s    3 1.00
             13.010701   0.033485484812989
             1.9622572    0.23472187088125
            0.44453796    0.81377028525955
 s    1 1.00
            0.12194962                   1
 p    1 1.00
                   0.8                   1

59 0
 s    3 1.00
             13.010701   0.033485484812989
             1.9622572    0.23472187088125
            0.44453796    0.81377028525955
 s    1 1.00
            0.12194962                   1
 p    1 1.00
                   0.8                   1

60 0
 s    3 1.00
             13.010701   0.033485484812989
             1.9622572    0.23472187088125
            0.44453796    0.81377028525955
 s    1 1.00
            0.12194962                   1
 p    1 1.00
                   0.8                   1

61 0
 s    3 1.00
             13.010701   0.033485484812989
             1.9622572    0.23472187088125
            0.44453796    0.81377028525955
 s    1 1.00
            0.12194962                   1
 p    1 1.00
                   0.8                   1

62 0
 s    5 1.00
          1238.4016938  0.0055173650481097
          186.29004992   0.041088828555946
          42.251176346     0.1822538212649
          11.676557932    0.46828459437429
          3.5930506482    0.44575817336002
 s    1 1.00
         0.40245147363                   1
 s    1 1.00
         0.13090182668                   1
 p    3 1.00
          9.4680970621   0.056888332011037
          2.0103545142    0.31294059336471
         0.54771004707    0.76065016509135
 p    1 1.00
         0.15268613795                   1
 d    1 1.00
                   0.8                   1

63 0
 s    5 1.00
          1712.8415853  -0.0054477995804909
          257.64812677  -0.040627174632423
          58.458245853   -0.18111962250584
          16.198367905   -0.46843975563173
          5.0052600809   -0.44616846289231
 s    1 1.00
         0.58731856571                   1
 s    1 1.00
         0.18764592253                   1
 p    3 1.00
          13.571470233  -0.058848116969522
          2.9257372874   -0.32024624762471
         0.79927750754   -0.75328226520436
 p    1 1.00
         0.21954348034                   1
 d    1 1.00
                     1                   1

64 0
 s    3 1.00
             13.010701   0.033485484812989
             1.9622572    0.23472187088125
            0.44453796    0.81377028525955
 s    1 1.00
            0.12194962                   1
 p    1 1.00
                   0.8                   1

65 0
 s    3 1.00
             13.010701   0.033485484812989
             1.9622572    0.23472187088125
            0.44453796    0.81377028525955
 s    1 1.00
            0.12194962                   1
 p    1 1.00
                   0.8                   1

66 0
 s    3 1.00
             13.010701   0.033485484812989
             1.9622572    0.23472187088125
            0.44453796    0.81377028525955
 s    1 1.00
            0.12194962                   1
 p    1 1.00
                   0.8                   1

67 0
 s    3 1.00
             13.010701   0.033485484812989
             1.9622572    0.23472187088125
            0.44453796    0.81377028525955
 s    1 1.00
            0.12194962                   1
 p    1 1.00
                   0.8                   1

68 0
 s    3 1.00
             13.010701   0.033485484812989
             1.9622572    0.23472187088125
            0.44453796    0.81377028525955
 s    1 1.00
            0.12194962                   1
 p    1 1.00
                   0.8                   1

69 0
 s    3 1.00
             13.010701   0.033485484812989
             1.9622572    0.23472187088125
            0.44453796    0.81377028525955
 s    1 1.00
            0.12194962                   1
 p    1 1.00
                   0.8                   1

[5d]
[7f]
[9g]
[core]
1 : 60
2 : 28
3 : 28
4 : 28
5 : 28
6 : 28
7 : 28
8 : 60
9 : 28
10 : 28
11 : 28
12 : 28
13 : 28

[MO]
 Sym= A
 Ene=   -0.2324449482
 Spin= Alpha
 Occup=    2.00000
   1    -0.062811471699924
   2    -0.0093389444049531
   3     0.089648765410641
   4     0.076712140946328
   5    -0.0047027512494813
   6    -0.002907592866943
   7     -0.01345604713596
   8    -0.0047512386766732
   9    -0.0029334694793258
  10    -0.013557578965497
  11     0.012419344070897
  12    0.0080353651022378
  13     0.035479769090299
  14    0.0038329303829226
  15    0.0046555056023364
  16    -0.002988573396148
  17     -0.04722918924869
  18    -0.0033376970447333
  19     -0.00439610801909
  20    0.00030685017599847
  21    -0.0011062598738693
  22       0.0132822443177
  23    -1.9699298836289e-05
  24    0.00069129464481641
  25    -0.00079451020108533
  26    -5.6986261016652e-05
  27    0.0039984380762831
  28    0.0038561373157734
  29    -0.0085842140865315
  30    -0.0097908408547127
  31    -0.028791578076537
  32    -1.2661317279479e-05
  33      0.01168297072199
  34    -0.035377195495143
  35    -1.7410548613939e-05
  36     0.014392238986594
  37      0.08256931989596
  38    -0.00036559904298515
  39    -0.032989343393611
  40     0.099936145075794
  41    0.0018331180386076
  42    -0.041369317191582
  43    8.0660306615402e-05
  44    0.00081429307275602
  45    9.6697900313485e-05
  46    -0.001880107219172
  47    -0.00073324318897156
  48    -0.00014385837356238
  49    -0.00072749901166925
  50    -0.00033206538742721
  51    0.0015461408917241
  52    0.0013706329934382
  53    0.0069286229165131
  54    0.0067198294069345
  55    -0.014741314191812
  56     -0.01719671309478
  57    -0.0015074504905331
  58    -0.030940980390102
  59     0.014931708263387
  60    -0.0018328518920994
  61    -0.038068719603395
  62     0.018377143831546
  63    0.0042873645840511
  64     0.088503818120108
  65    -0.043082995477478
  66    0.0059495023602254
  67      0.11299995913851
  68    -0.051383771010136
  69    0.00019012193812784
  70    0.0002922491378947
  71     0.002034637600778
  72    0.0028147836939347
  73    -0.0010286829214433
  74    -6.5788913038254e-05
  75    -0.00084174704384453
  76    -0.0021262429028017
  77    -0.0022931527647501
  78    0.0013789446403596
  79    0.0094425912934797
  80     0.008867695697936
  81    -0.0095658135210244
  82    -0.064973929648494
  83    -0.0083600994332438
  84    -0.013615644073611
  85     0.054955536142269
  86    -0.010260143363603
  87    -0.016803530672602
  88     0.067601068023394
  89     0.024878365030867
  90     0.038658902515118
  91     -0.15775730631911
  92      0.02725631905732
  93     0.054841268356519
  94      -0.2215325131117
  95    -0.017371022475023
  96    0.00077640876533378
  97    0.00066701238280934
  98    -0.00017881257843349
  99    9.6159793218321e-05
 100     0.018652472324958
 101    0.00016119878011196
 102    0.00019310314174426
 103    -6.4938803116524e-05
 104    -0.00039489443565546
 105    0.0028289774601687
 106    0.0025901624471888
 107    -0.0028694936345704
 108     -0.01446588974326
 109     0.028605270577633
 110    0.00055395753890698
 111    0.0092805412442162
 112     0.035076638149882
 113    0.00068436149318962
 114      0.01137779409422
 115    -0.082964742393515
 116    -0.0016996298913017
 117    -0.027408898585339
 118    -0.096989770161376
 119    -0.0017550141825904
 120    -0.028883119414546
 121    0.00028445955396782
 122    -0.00022338941471089
 123    -5.6177712709509e-05
 124    -0.0011317005237827
 125    -7.2958016118912e-05
 126     0.000172186142348
 127    -0.00042670670988511
 128    -6.5524665037197e-05
 129    -3.5968545315921e-05
 130    0.00019891191514059
 131    0.0025053473217848
 132    0.0023097411256715
 133    -0.0030887307907117
 134    -0.011181051359881
 135    -0.0058575658892176
 136     0.028431266601915
 137    0.0067741111958681
 138    -0.0072011385974498
 139     0.034880802459259
 140    0.0082945383000501
 141     0.016589301773903
 142    -0.082181860848217
 143     -0.02016058502294
 144     0.021615614485343
 145    -0.096607846577666
 146    -0.019742537551056
 147    0.00020815418358096
 148    2.4961893579036e-05
 149    0.00020920849882378
 150    0.0012483032345048
 151    0.00022884970776128
 152    0.00039963486614094
 153    0.00020329264101372
 154    -0.00099666893444006
 155    -0.00023990015381362
 156    0.00040370007285411
 157    0.00020008088722177
 158    7.6950422962982e-05
 159    0.0039736709174619
 160    -0.014366549635888
 161    0.00063102221400086
 162    0.0033380628546112
 163    -0.0024752420026767
 164    0.00075059850635452
 165    0.0040786023211034
 166    -0.0030149022454498
 167    -0.0022675933262838
 168    -0.010069656579314
 169    0.0077735095361327
 170      0.00129583472538
 171    -0.0079122237176247
 172    -0.0025188916505623
 173    -0.00050490191775627
 174    0.00016566751010717
 175    0.00012742271335436
 176    4.2051110658042e-05
 177    9.8021117373691e-05
 178    -0.00078145606511041
 179    0.00050776750248601
 180    0.00034913433465911
 181    -3.9380465930462e-05
 182    -0.00024471326108185
 183     -0.39587170746651
 184    -0.060051203793889
 185      0.55206856318806
 186      0.55856416645035
 187    -0.0048444913737889
 188    -0.003658243894148
 189     0.011539316998164
 190    -0.0049477832601998
 191    -0.0036988646339806
 192     0.011714710635862
 193      0.00648597449639
 194    0.0074659609834202
 195     -0.02552971024503
 196      0.03277423076561
 197     0.020955218101337
 198    -0.033345460693532
 199     0.003956716342107
 200    0.0023666920567229
 201    0.0073363323617749
 202    0.0035801691227621
 203    -0.0052516499442502
 204    -0.0031793850258535
 205    -0.00099616049730592
 206    -0.0017382591816073
 207    -0.0021912375343788
 208    0.0028558056134317
 209      0.01326205954066
 210     0.012705463650113
 211    -0.020268032680315
 212    -0.068460699877257
 213    -0.059359426777662
 214    -0.0019176758846397
 215     0.006638708526945
 216    -0.073194099381206
 217    -0.0022653266359045
 218    0.0081622066030188
 219       0.1691251891553
 220    0.0070809816513518
 221     -0.01918567817958
 222      0.25040292396871
 223    0.00023908735239873
 224    -0.024583429338431
 225    0.0057147267634381
 226    0.0021946757225097
 227    -0.00038798565438204
 228    -0.010541044317736
 229    -0.00017449635874885
 230    -0.0043235367341014
 231    -0.0016320343038886
 232    -0.00011107398472587
 233    0.0079919858979431
 234    -0.0014046801869062
 235     0.014682982889092
 236      0.01396713500837
 237    -0.019661034754934
 238    -0.079062481701187
 239    -0.0041349499911791
 240     -0.05580792822225
 241    0.0021853422354255
 242    -0.0050916667287265
 243     -0.06886177829734
 244     0.002701677120858
 245     0.011897919943537
 246      0.15841548230912
 247    -0.0056681567661974
 248     0.016854334201906
 249      0.24048821476412
 250     -0.01195670159753
 251    0.0061573718633295
 252    -0.00021147746382269
 253    0.0012783192991987
 254      0.01093979407094
 255    -0.00023585796863243
 256    -0.0052161995946834
 257    0.00080782495140684
 258    -0.0013310393390988
 259    -0.0098361034889164
 260    -0.0011626525518544
 261     0.018048962466258
 262     0.017047717657434
 263    -0.023509260746587
 264    -0.087637590436442
 265    -0.0053276824911211
 266    -0.0076389191737178
 267    -0.078167163887926
 268    -0.0065593658015322
 269    -0.0094072138640213
 270     -0.09622227670362
 271     0.015390491570331
 272     0.021787661597508
 273      0.22477835421434
 274     0.019221525721093
 275     0.029026592480282
 276      0.31132085196024
 277    -0.011339647588057
 278    -0.00084501156267894
 279    -0.0017414890772163
 280     0.000275106206336
 281    -0.00040052024417815
 282    0.0064249675036057
 283    0.00021581095652979
 284    0.0014062215548373
 285    -0.0002787241521385
 286    0.0011443572756181
 287     0.017631304875893
 288      0.01660741575457
 289    -0.021979462116661
 290    -0.086352433239895
 291     0.074046760846158
 292    -0.0065070280809302
 293     0.007080473391922
 294     0.091199648037321
 295    -0.0079876413298847
 296    0.0086961165024218
 297     -0.21268918989767
 298     0.019229045597091
 299    -0.020886269645163
 300     -0.29643173077156
 301     0.021216510900234
 302    -0.023768819503064
 303    0.0062969760159047
 304    -0.0016920994333664
 305    0.00033268211933992
 306    -0.010219508971942
 307    0.0026866468780577
 308    -0.004633003809807
 309    0.0014121207898877
 310    -0.0007641604119836
 311    0.0069136527348246
 312    -0.003703432331712
 313     0.016298444360692
 314      0.01542695256773
 315    -0.021501848041199
 316    -0.081201716297358
 317    -0.012987137166267
 318     0.070402159103515
 319     0.016091795758531
 320    -0.016060689279384
 321     0.086701863135836
 322     0.019847632881739
 323     0.036162792194599
 324     -0.20255603811185
 325    -0.045797797678269
 326     0.054813617665454
 327     -0.28335037995616
 328    -0.063760138346447
 329    0.0055160886410729
 330    0.0010027159221992
 331    -0.0038269081488507
 332    0.0095639777358373
 333    0.0038479305592892
 334    -0.0035816650620706
 335    -0.0020828642951852
 336    0.0030380138800498
 337    -0.0054843485209543
 338    -0.0037042620488996
 339    0.0019754120957362
 340    -0.0049001585566203
 341    -0.017573830413804
 342    -0.0028597762210643
 343    -0.0056768148813551
 344    -0.0071572979941347
 345    0.0011870079346446
 346    -0.0060343591872191
 347    -0.00036198162581513
 348    -0.00043531098642002
 349    -0.00015672782961901
 350    -0.00042596211287268
 351    0.00011726024590999
 352    -0.00012987883928035
 353    0.0049354653748451
 354     0.012412521351303
 355     0.011739619994039
 356    -0.011172147713517
 357    -0.011184668639853
 358    -0.0013508056774345
 359    0.0057684760393425
 360    0.0084261644312978
 361    -0.010278869406763
 362    -0.00024212834564556
 363    -0.00049579841228672
 364    -0.00062225592288171
 365    -0.00010537365738138
 366    -0.00033596407885365
 367     0.002511189138786
 368    0.0061825013944282
 369    0.00022622556673094
 370    -6.7789677605292e-05
 371    -0.00075359361408356
 372    0.0048266077335219
 373    0.0033825927016383
 374    -0.0011749978074641
 375    -0.00022595245511134
 376    -0.0013025800699613
 377    0.0049865122660442
 378    -0.019035821171791
 379    -0.0011724964410922
 380    -0.0014937548733316
 381    -3.0767960349885e-05
 382    0.0014398590068899
 383    0.0043684116721501
 384    -8.4674058197714e-05
 385    2.0791574109396e-05
 386    -0.00045336123306379
 387    0.00063357772504363
 388    0.0063127437852759
 389    -0.00043525827975336
 390    -0.00031903433486472
 391    1.6311569789166e-05
 392    0.0020309205140346
 393     0.011561811503203
 394    6.0731715033133e-05
 395    -0.00031599366128779
 396    3.650724723316e-05
 397    0.0022272024816229
 398    -0.0010492255392567
 399    -0.036612031530424
 400    0.0024385726369187
 401    0.0063331375051042
 402    -0.007945037219732
 403    -0.0056045985455055
 404    0.0085049068253454
 405    -0.011294037166916
 406    -0.00035518814917866
 407    6.5800654162086e-06
 408    0.00012449236945229
 409    0.00026570623973799
 410    -6.8521793887963e-05
 411    0.0020288515686743
 412     0.004107318434889
 413     0.017733098434749
 414    -0.0014146179774336
 415     0.010565642519399
 416    0.00088565587034288
 417    0.0017851172965333
 418    -0.015713819983608
 419    -0.0059118719452728
 420    -0.0003814464562523
 421    0.00031724586896998
 422    0.00016539569070746
 423    0.00027911744455763
 424    -0.0001867806025005
 425     0.003100640769942
 426    -0.026162047247307
 427    -0.00017864784219537
 428    0.00052711775747121
 429    -0.00069275051895559
 430    -0.0059019725678419
 431    0.0001594646277335
 432    0.00010065867716074
 433    0.00026071641605175
 434    -0.00016661902466595
 435    0.00041722165653259
 436     0.013732734199065
 437    0.00034332443963806
 438    -2.9454906793354e-05
 439    -3.5274889343709e-05
 440    0.00029608659035722
 441    0.0076793835021961
 442    7.7907989069024e-05
 443    9.9550988384848e-05
 444    -0.00010462006608028
 445    0.0016566756556122
 446    0.0035429176276563
 447    0.00018479285146945
 448    0.00022459864947558
 449    -0.00014206525105636
 450    -0.0029726914545341
 451     0.020735002809497
 452    -0.00038503025384544
 453    -0.00053203231577251
 454    0.00061830593158401
 455    0.0026531654598472
 456    -0.0073290411815329
 457    -0.021571777975861
 458    -0.0044178929794328
 459    0.0053746495941251
 460     0.004470613813344
 461    -0.000339129978203
 462    0.0013284403429759
 463    0.00091284773756369
 464    0.00014367229599834
 465    0.00012686580403906
 466    -0.0004395608616432
 467    0.00028630264672435
 468    0.00038420482234352
 469    0.0018629849296817
 470    0.0081685865001079
 471    -0.018563457422782
 472    -0.0049918019760346
 473    0.0040132060445937
 474    0.0047999784187936
 475    -0.0036597545675174
 476    0.0097665349043756
 477    0.0041922392315469
 478    0.0001029935556934
 479    0.00041721456769614
 480    -0.00062552326084876
 481    0.00017492528204445
 482    0.00059258922153995
 483    0.0062064203041519
 484     0.011782671134663
 485    0.00019842653092134
 486    0.00097172647570485
 487     0.000587886808373
 488    0.0056557467661149
 489    0.0077589319606046
 490    -0.0010915189865589
 491     0.000606835695027
 492    0.0012155041254952
 493    0.0063718674087532
 494     0.010962191425218
 495    -0.0008383624291877
 496    0.00098696851941534
 497    -2.9215924884192e-05
 498    0.00015822768858837
 499     0.008507789524047
 500    -4.9424997997284e-05
 501    3.3724061836225e-05
 502    0.00033542936906455
 503    -0.00028648415012976
 504    0.0079122488977284
 505    -0.00030570609444014
 506    6.2858114425559e-05
 507    6.3083362970111e-05
 508    0.0022030144750324
 509    0.0080348460940623
 510    1.3909252674163e-05
 511    0.00036828668640214
 512    -5.7375282770675e-05
 513    0.0032005323854992
 514    -0.006927386159176
 515    -0.028486318612794
 516    0.0070800474074225
 517    -0.00058281934011967
 518    -0.0034526824489067
 519    -0.00077203123886639
 520     0.010009491468633
 521    -0.00050881101228187
 522    0.00039919297697826
 523    -0.0003312900299414
 524    0.00018606075397959
 525    0.00049490228457214
 526    -0.00019045487541218
 527    0.0027665809512195
 528    0.0058484211508844
 529     0.012036077668725
 530     0.011566692444596
 531    -0.0023532013068664
 532    -0.0038164994939504
 533    -0.014355871399065
 534    -0.0024274124323183
 535    0.0069808622929776
 536    0.00029373997737013
 537    7.4453717242515e-05
 538    7.0997833397325e-05
 539    0.00026573246636266
 540    0.00034756891938781
 541    0.0014903518849451
 542    -0.0060442331889116
 543    0.00044459317986474
 544    -0.00011700852147349
 545    0.00083869387575541
 546    -0.0001596342109339
 547    -0.024668434078239
 548    0.00097489633100274
 549    -0.0011915568264267
 550    -0.00096459952428896
 551    0.00018569434604842
 552    0.0094976022144561
 553    -0.00018436226904578
 554    -0.0001356113483859
 555    0.00047935552407285
 556    -0.0056943724059787
 557     0.018721450881253
 558    -0.00014216050146004
 559    -1.2664051304732e-05
 560    0.00017275295419273
 561    -0.00072468292723816
 562     0.014092184382316
 563    0.00010396406224379
 564    -0.00012735356523019
 565    -0.0003411544874629
 566    0.0061877953062793
 567     0.011920106969184
 568    -3.3374958265972e-06
 569    -0.0002058730317982
 570    0.00043091595827967
 571    -4.5264392445463e-05
 572    0.0045207979429326
 573    -0.026123074468163
 574    0.0014537027914591
 575    0.0014709370787518
 576    -0.00082640636258689
 577     0.013785433831347
 578    -0.004095458044718
 579     0.010716091900447
 580    0.00017438067829142
 581    -0.00039863248953672
 582    -0.00016622860184763
 583    -0.00025880651578558
 584    0.00033717589782737
 585    0.0026186306628645
 586    0.0048978989069776
 587     0.021569522815009
 588     0.010205297951237
 589    -0.0063367963793689
 590    0.0076089186248761
 591     -0.01587495103411
 592     0.011322272071991
 593    -0.018580150457708
 594    0.00014919668790969
 595    -0.00029913926121739
 596    -0.0002775153246784
 597    -7.2205152257771e-05
 598    0.00035851383722196
 599    -0.004844223562635
 600    -0.040678677639162
 601    0.0015722080466541
 602    -0.00073337962122827
 603    0.00046583926385786
 604    -0.0017325448388157
 605    0.0076246336291222
 606    -0.00036032895014795
 607    5.453028529233e-05
 608    -0.00021853394729039
 609    -0.0051392346656597
 610    0.0087405641383974
 611    -0.00019160271322388
 612    0.00018559423664986
 613    -0.00034368229374084
 614    0.0020962991932654
 615     0.016201209298644
 616    0.00040365405843798
 617    -4.9367545651311e-05
 618    0.00037487094686789
 619    -0.0017842094055309
 620    -0.0070497529286697
 621    -0.0001902066843107
 622    -0.00027173826390896
 623    0.00026980351253314
 624    0.0022765964021385
 625     0.019576659737985
 626    0.00047004535079985
 627    8.4747792098071e-05
 628    -0.00014911737304143
 629    -0.00013427990039294
 630    0.00096610513677473
 631    -0.0036639103968126
 632    -0.0023419156974265
 633    0.0021249600713476
 634    0.0010443005959135
 635    -0.003455269862463
 636    0.0020612668844074
 637    0.00051687575716985
 638    0.00017931825249641
 639    1.9022273220585e-05
 640    1.4312049670226e-05
 641    1.026345256101e-05
 642    0.00011313315674016
 643    -0.0016940371041956
 644    -0.0032395839812326
 645     -0.01162624261449
 646    -0.0017870075421445
 647    0.0032994393723397
 648    0.0017630332157231
 649    0.0014432783434478
 650    -0.0080948077218885
 651    -0.00044296921307206
 652    0.00014598197638478
 653    -0.00018885848724728
 654    -1.1595953655121e-05
 655    6.340431713667e-05
 656    -3.9911760397774e-05
 657    -0.0018301617902763
 658    -0.0060245626851218
 659    4.5636340899535e-06
 660    -0.00013091784950002
 661    -6.4370392201096e-05
 662    -0.00067784535352548
 663    0.0080083633699463
 664    9.5612466118582e-06
 665    -0.00015016131970447
 666    -1.3578395261399e-05
 667    6.5258592617413e-05
 668     0.012949069162985
 669    -0.00025863146555412
 670    -0.00010497207563504
 671    0.00039018627322462
 672    -0.002387135216434
 673    0.0054946433480998
 674    -6.1890463344757e-05
 675    -5.6797874467218e-05
 676    0.00026040400300504
 677    0.0008446373768058
 678    0.00019564382109035
 679    -6.5440726138628e-05
 680    3.0293428468254e-05
 681    -8.8382857465075e-07
 682    0.00068466128881604
 683    -0.0017714120674093
 684    -3.6327099430496e-05
 685    9.4113599262034e-05
 686    -7.0345292669166e-05
 687    0.00071095065526735
 688    -0.00076788689333243
 689    -0.016708091032694
 690    -0.002348579186565
 691    0.0023556909345464
 692    -0.0039148963785589
 693    -0.0058359886112235
 694    0.00045388695284849
 695    -0.0067857933905164
 696    6.8685515232326e-05
 697    2.7390106427863e-06
 698    -0.00021298543156131
 699    -0.00011792178661381
 700    0.00042439123778872
 701    0.00054737765886775
 702    0.0018524984814033
 703       4.876911148e-05
 704    0.0018417440110147
 705     0.010050033868084
 706    0.00072680123397224
 707    0.0033455930909672
 708    -0.013746552867665
 709    -0.0032133942399072
 710    4.5488060747316e-05
 711    -3.8150322610577e-05
 712    0.00024748078259825
 713    -0.00011963121109244
 714    -1.3464418490068e-05
 715    -0.0004222989722621
 716     0.011878731924794
 717    -8.3407174733039e-05
 718    -0.00022508678651209
 719    0.00071922329824763
 720    0.0023237640625454
 721    -0.020173902456464
 722    0.0007259786013369
 723    0.00072230716114767
 724    -0.0011512582494929
 725    -0.00039743690338643
 726    0.0096782315133556
 727    -0.0002493551360702
 728    0.00019825902728729
 729    -5.3960616876279e-05
 730    0.00033671730633141
 731    -0.001156445361551
 732    0.00040016509514167
 733    0.00046328549179719
 734    -2.6787624179823e-05
 735    -0.0039713694937437
 736     0.014106055252591
 737    -0.00018407023376902
 738    4.8654191957398e-06
 739    0.00019029365169959
 740    0.0025122464366416
 741    0.0065925974166806
 742    -0.00013813612046937
 743    -0.000168127254937
 744    -0.0001200916768895
 Sym= A
 Ene=   -0.1816657304
 Spin= Alpha
 Occup=    2.00000
   1     -0.40034165387251
   2    -0.060486260526068
   3      0.55009179020413
   4      0.58612654991363
   5    -0.014667591094031
   6    -0.0088619904986598
   7    -0.021638272156615
   8    -0.014907405606913
   9    -0.0089656914309936
  10    -0.021907742883207
  11     0.031662876595718
  12     0.024175153351492
  13     0.068215228901418
  14     0.043262670145358
  15     0.026070973534171
  16     0.044133050147007
  17    -0.0016352593785032
  18    -0.0097636494624346
  19    -0.0083289134943734
  20    0.0039606867592129
  21    -0.0053227852947586
  22    0.00053056720452841
  23    0.0042933509675861
  24    0.0050464314159347
  25    -0.0038115276706245
  26    0.00049841149557807
  27     0.012161654789853
  28     0.011686109921098
  29    -0.019162471606557
  30    -0.062269659110298
  31    -0.052778735919462
  32    -0.0025970668512822
  33    0.0014331084209916
  34    -0.065146652382243
  35    -0.0032364262619897
  36     0.001802048752108
  37      0.14898944365239
  38    0.0065124907867893
  39    -0.0033775689074394
  40      0.22717444848908
  41     0.014652049257115
  42    -0.0089862588384804
  43    0.0060060523695588
  44    -9.888946523753e-05
  45    -0.00044374894149713
  46    -0.010193670936508
  47    -0.0018398706188308
  48    -0.0057447101837276
  49    0.00086033711193232
  50    3.3813336831703e-05
  51    0.0089051201603093
  52    0.0030962470777127
  53     0.017025639493614
  54      0.01643602442201
  55    -0.027995111523008
  56    -0.080230852662815
  57    -0.0063860039402921
  58     -0.05354163060327
  59    -0.0046202466512266
  60    -0.0079303436006383
  61    -0.066208166906343
  62    -0.0056890128000094
  63     0.017044460461429
  64      0.15022578737093
  65     0.013178256607649
  66     0.031653881039146
  67      0.24416634652936
  68     0.019129180287782
  69    0.0076854845370548
  70    -0.00070869786361436
  71    -0.0024464346019389
  72     0.012482609395006
  73    -0.0031560994532831
  74    -0.0073209653268093
  75    0.00083120573976491
  76    0.0028556147464492
  77    -0.011790263726733
  78    0.0039251260864484
  79     0.015980639548413
  80     0.015842206295309
  81    -0.034666589581222
  82    -0.059870749499468
  83    3.8048555935336e-05
  84    -0.0035305960918588
  85    -0.055141426846702
  86    0.00013526475504673
  87    -0.0043852647523724
  88    -0.068159148107264
  89    0.0015799676099255
  90    0.0095828360008342
  91       0.1569368696118
  92    -0.0088856625536079
  93     0.017553344978434
  94       0.2540169905624
  95    -0.018969115243886
  96    0.00016090452050515
  97    -0.0018324734447411
  98    -9.1767882401724e-05
  99    2.2924298269077e-05
 100     0.023414779232703
 101    -0.00065957482613319
 102    0.0018368664839354
 103    -0.00017829167177158
 104    0.00062534251025353
 105     0.019340971493739
 106      0.01830048847189
 107    -0.025827105080132
 108    -0.092126446084983
 109     0.080045199820118
 110    -0.0028513127366625
 111    -0.0032322449797257
 112     0.098501148083025
 113    -0.0034625756948143
 114    -0.0039844822126729
 115     -0.23009524871967
 116    0.0086995058336189
 117    0.0092976870545642
 118     -0.32082046968122
 119    0.0077950069768617
 120    0.0097358056135465
 121    0.0064445903309517
 122    0.0022458926247008
 123    -0.0003659729879549
 124    -0.010589792408528
 125    0.00072881238745828
 126    -0.0036564145162656
 127    -0.0040035546964928
 128    0.00021541988635074
 129    0.0059361666464829
 130    -0.00045628234827464
 131     0.017576563189385
 132     0.016660600713666
 133    -0.024216866101015
 134    -0.084483860585101
 135    -0.012543049920851
 136     0.076791977634141
 137    -0.0082118706037528
 138     -0.01548828430721
 139     0.094538265739763
 140    -0.010181479322635
 141     0.034605430391311
 142     -0.22007320612311
 143     0.022435635112217
 144     0.054654402401962
 145     -0.30950869177667
 146     0.035386326571036
 147    0.0055929750043568
 148    -0.00028357555081328
 149    0.0033056877706757
 150    0.0097277671716687
 151     0.002480764416911
 152    -0.0025552597217132
 153    0.0011515200542088
 154    -0.0047166641402318
 155    -0.0050931695665001
 156    -0.00079953958348199
 157     0.014461371134182
 158     0.013521366296495
 159    -0.017725304424462
 160     -0.07221127454892
 161    -0.014991082878043
 162    -0.013575569451993
 163     0.083404528476888
 164    -0.018430047864884
 165    -0.016711934909659
 166      0.10247007200412
 167     0.042204827081995
 168     0.038087081469011
 169       -0.239130871594
 170     0.057850993811278
 171     0.053309826623158
 172     -0.31843394334423
 173    -0.0068955015107363
 174     0.003022162632063
 175    0.0033015820908097
 176    0.00013859498146454
 177    -0.00042934771889663
 178    -0.00040470875935108
 179    -0.0020956315401228
 180    -0.0031605259850915
 181    -0.00016743684908008
 182    0.00085896001150232
 183      0.10534294614501
 184     0.016506170281011
 185     -0.14572493283709
 186     -0.16653912344189
 187    0.00021256467109814
 188    -0.00079072015135002
 189     0.013569658949654
 190     0.000234542847747
 191    -0.00080758144136577
 192     0.013719774595627
 193    0.0018365039150672
 194    0.0024044583559856
 195    -0.036336395168055
 196    -0.010777650242653
 197    -0.0031913625174596
 198    -0.026488794561568
 199     -0.02878067883594
 200     0.001226160964155
 201    0.0025943025412878
 202    -0.00046966286430065
 203    0.00032003948376481
 204     0.010278112899606
 205    -0.00085596044284633
 206    -0.0015492280055324
 207    0.00033287024847415
 208    0.00029579114397912
 209    -0.00086535725886582
 210    -0.00066640560682737
 211    -0.0034977080335839
 212     0.019599957067439
 213      0.00555467394685
 214    0.00092633227479762
 215    -0.0061352691055606
 216    0.0069152140304137
 217    0.0010938575917646
 218    -0.0075852485679596
 219    -0.014741493484377
 220    -0.0036160579953785
 221     0.017756510063715
 222     -0.03499103480921
 223    0.0007621395091949
 224     0.024672198071513
 225    -0.0019466884500471
 226    -0.0030089334568777
 227    0.00046582187150571
 228    0.0021712168906391
 229    0.00048469684020372
 230    0.0019062566925332
 231     0.003539906999041
 232    -0.00085787464569546
 233    -0.0016584670000572
 234    -0.0005620170409628
 235    -0.00040459086054905
 236    -0.00015080749642193
 237    -0.0060037931403872
 238     0.020955825460993
 239    0.00040324303568769
 240    0.0043301017542071
 241    -0.0066066013363434
 242    0.00049134568726424
 243    0.0054241127991939
 244    -0.0081414748432732
 245    -0.0011447618693436
 246    -0.010869468291173
 247     0.019668432618262
 248    -0.0016371450288768
 249    -0.031378613654782
 250     0.024311334945916
 251    -0.0025189438865341
 252    0.0003411204796788
 253    -0.0031751798043356
 254    -0.0022135216242258
 255    0.00030280180757673
 256    0.0029471655942905
 257    -0.00033916910651751
 258    0.0041301537046307
 259    0.0020160972135769
 260    -0.00037774178544286
 261    -0.009534604169108
 262    -0.0090839799254214
 263     0.014317544813368
 264      0.04501255815133
 265    0.0020333645966327
 266    0.0029217322528371
 267     0.026387877378561
 268    0.0025094681952515
 269    0.0036118378077447
 270     0.032612310009639
 271    -0.0059321136898807
 272    -0.0082994175646245
 273    -0.075099444513407
 274    -0.0076245763040995
 275    -0.012118803619672
 276      -0.1160862376686
 277    0.0058865739836648
 278    0.00060367788587243
 279    0.00096506694020454
 280    -8.868041001179e-05
 281    0.00026202306872228
 282    -0.0052735970595864
 283    -0.00063911790362709
 284    -0.0010984748288497
 285    0.00011217081247571
 286    -0.00052460064467394
 287    -0.0038648419351722
 288    -0.003612928559853
 289    0.0033547521560626
 290     0.022861341014042
 291    -0.011080134103313
 292    0.0021237615330299
 293    -0.0053397915568144
 294    -0.013714784576679
 295    0.0026210188194367
 296    -0.0065874024878885
 297     0.031059223711028
 298    -0.0062203722723372
 299      0.01568142628347
 300     0.054089022308576
 301    -0.008071809651262
 302     0.020822601368817
 303    -0.0021365202087687
 304    0.0024136785974297
 305    -0.00019028984458563
 306    0.0027009173459046
 307    -0.00069457980259535
 308    0.0021315029816484
 309    -0.0028538421366403
 310    0.00041525406680119
 311    -0.0019262665611102
 312    0.0008950524504286
 313    -0.004006149446487
 314    -0.0038021097118775
 315    0.0046131100812233
 316     0.022570772433244
 317    0.0025167487050673
 318    -0.010952375126032
 319    -0.0063454504092633
 320    0.0031393619323862
 321    -0.013535229939532
 322    -0.0078502054353548
 323    -0.0068159656955352
 324     0.031092234301188
 325      0.01812002517924
 326     -0.01185222724024
 327     0.052358290508843
 328     0.027358729026021
 329    -0.0015242971035734
 330    -0.00037569360784767
 331    0.0027084214208123
 332    -0.0023131887564654
 333    -0.00088350105850383
 334    0.0012497252291995
 335    0.00050899301490252
 336    -0.0027537731912319
 337    0.0013258780762358
 338    0.00090453349465515
 339    0.00042081778576102
 340    0.0032882805306672
 341    -0.030189231153867
 342    0.0032042534053302
 343    -0.00092086886536206
 344    0.0024372265192611
 345    0.0024780617901867
 346    -0.011958487795942
 347     0.014535541725073
 348    -0.00027369729627916
 349    0.00026591589854329
 350    0.00045124822642868
 351    -0.00014819870100763
 352    0.00021359714239658
 353    0.0030864939562754
 354    0.0045343362946621
 355     0.033614001346167
 356    -0.0048345786408517
 357    -0.008216486422451
 358    0.0089546578919373
 359    0.0064277041747259
 360     0.019554588298416
 361    -0.0099943662691613
 362    -8.3302367503424e-05
 363    0.00021449233074646
 364    0.00039895598444811
 365    -0.00019363027181823
 366    0.00020360441223392
 367    -0.0058985667495244
 368    -0.0026777764292596
 369    -8.7835934548631e-05
 370    0.00044338322265435
 371    0.00025813940774464
 372    -0.0023969285518435
 373    -0.001697743226989
 374    0.00025305215307964
 375    0.00021033742041013
 376    -0.00013763055927908
 377    -0.0035509194706341
 378    -0.040975859539648
 379    -0.0008719940994144
 380    -0.00055743561498329
 381    0.0012913369668706
 382    -0.00093023587182255
 383    -0.0042323792802811
 384    -0.00012719945321065
 385    -0.00026342769889908
 386    -0.00021815104985789
 387    0.0018687342018094
 388      0.01561960411745
 389    -0.00015889454278746
 390    -0.00062446485739354
 391    0.00044585034149355
 392    0.00090999105745117
 393     0.025681993570161
 394    0.0001525830312842
 395    0.00030930720172085
 396    0.00025841666202607
 397    0.0016602717816208
 398    -0.00078804588326307
 399     -0.03014578620481
 400    0.00093332898651607
 401    0.0041628907844899
 402     0.010085877092443
 403    -0.0057584746563102
 404    0.0061259857636854
 405     0.016172694943777
 406    -0.00012167241108061
 407    7.246899254064e-05
 408    -0.00019906774786622
 409    0.00013255596147005
 410    5.2366125183508e-05
 411    0.0015281318147292
 412    0.0020931957165609
 413     0.021275570801001
 414    -0.000421378206667
 415    0.0057403320779869
 416    0.00035076611838094
 417     0.001207262529091
 418    -0.010024795721427
 419     0.011637650467893
 420    -0.00028874461632562
 421    -0.00022570732030576
 422    -0.0004271345177867
 423    0.00017415895834824
 424    -0.00016232650933348
 425    0.0020508794126224
 426    -0.027351946747039
 427    -4.8314073989159e-06
 428    8.8140347164367e-05
 429    0.0012901014432279
 430    0.0051935077378027
 431     0.015302884461861
 432    -3.1414799639267e-05
 433    5.8580318602267e-05
 434    0.00052121638062365
 435    -0.0092740649152857
 436    -0.0085781147734578
 437    7.3203245601616e-05
 438    0.00048115129062907
 439    0.00040849574487944
 440    -0.0014217783580909
 441     0.024906347996237
 442    -0.00075399652217065
 443    -0.00057769504624795
 444    -0.00063895050858351
 445    0.00026898172552211
 446    0.0033244689263579
 447    0.00013932604723363
 448    0.0001609934751885
 449    0.00011623966609844
 450    0.00068692927201877
 451    0.00034301604301922
 452    0.00051159050765142
 453    0.00030856450946879
 454    -7.2759068537219e-05
 455    -0.00065405548444814
 456     0.002054356323969
 457    0.0035334968677503
 458    0.0012114240071303
 459    -0.0018529208448105
 460    -0.0012812029479724
 461    -0.0003360199486139
 462    -0.0004939841702972
 463    -0.0014870095619946
 464    -5.1254999599902e-05
 465    1.3437428289501e-05
 466    8.5367827917761e-05
 467    -0.00011364114040632
 468    -8.1948826163808e-05
 469    -0.0014559212367675
 470    -0.0036405993556947
 471    -0.0045491084577912
 472    0.0022962607385355
 473    -0.00043277475221678
 474    -0.0030531200060223
 475    -3.2550850911329e-05
 476    -0.0029719012761167
 477    0.0033865362811423
 478    -3.7482407160036e-05
 479    -0.0001375492088965
 480    0.00011084562405822
 481    -1.2948035717985e-05
 482    -0.00013143064193442
 483    -0.00035970873097236
 484    0.0017831699586941
 485    -9.1011061252207e-05
 486    -0.00030589782588054
 487    -7.7804324283312e-05
 488    -4.2233607780906e-05
 489    0.0057205721009671
 490    0.00062479886876144
 491    7.7225254649356e-05
 492    -0.00036867695673211
 493    -0.0015690350970289
 494    -0.0016956182379762
 495    0.00030338040835626
 496    -0.00042736469717003
 497    -0.00013937794529566
 498    -0.00011255428820028
 499    -0.0023594674986348
 500    -5.3440754093662e-07
 501    1.4613641083313e-05
 502    -9.7770312206948e-05
 503    4.0727851102689e-05
 504    -0.000570271709745
 505    8.9940899903545e-05
 506    -6.8938550226404e-05
 507    -2.3966639528591e-05
 508    -0.00057879991919173
 509    -0.0018309024374485
 510    3.9359653358163e-05
 511    -0.000137200830677
 512    1.7804916297077e-05
 513    0.0022575253422085
 514    -0.0056888448299429
 515    -0.019539869039433
 516    0.0042950433336646
 517     -0.00212372302449
 518    0.0045654896543008
 519    -0.001709085257554
 520    0.0047124884030887
 521    -0.0061202943966435
 522    0.00027686339958972
 523    0.00073551342272067
 524    -0.0003325086877771
 525    0.00034684103673943
 526    3.6775522852663e-05
 527    0.0027798207538472
 528    0.0064452672697637
 529     0.011239234862938
 530    0.0069570422015866
 531    -0.0031353579554667
 532     0.010221749642554
 533    -0.0072935881266244
 534    -0.0023844773680136
 535    -0.010884086631236
 536    0.00010602750121029
 537    -0.00030168013229958
 538    0.00030140715019745
 539     0.000168320929213
 540    0.00038147839187028
 541    9.2238986190905e-05
 542    -0.024420989027359
 543    0.0014963892029162
 544    -0.0015702098094527
 545    0.0014525762664027
 546    0.0016697411287565
 547    0.0011588192551343
 548    -0.00043740537507665
 549    0.00063740820674218
 550    -6.7407640736003e-05
 551    0.0024342318469472
 552    0.0024174027322283
 553    -0.00017717439726246
 554    -0.00037703233206988
 555    -0.00036661799685212
 556    -0.0027804015149405
 557     0.013381398061428
 558    0.00018746343406395
 559    4.7098859252502e-05
 560    -0.00010135311506768
 561    0.0079487011407495
 562     0.012563681932097
 563    -0.00021615076042911
 564    -0.00029500554381647
 565    -0.00030473595387628
 566    -0.0050608512971438
 567    0.0059649737499072
 568    0.00022875875710906
 569    -0.00016705067202192
 570    0.00014461342659132
 571    0.00010385400594915
 572    -0.0010690656246601
 573    0.0043499557785274
 574    0.0010811855948797
 575    0.00097862163019229
 576    0.00079954043895504
 577    -0.0024065313053255
 578    0.0035424929891274
 579    -0.0027824725677204
 580    -7.4851020103324e-05
 581    3.8603349904341e-05
 582    2.2675772824073e-05
 583    0.00014041085318431
 584    -7.3016729987339e-05
 585    -0.0013825623956626
 586    -0.0025583413976562
 587    -0.012324361356899
 588    -0.0020705615053292
 589     0.002809108418279
 590    -0.0028222145520518
 591    0.0042527592490457
 592    -0.0034682344883702
 593    0.0055706364620965
 594    7.8536230921114e-08
 595    4.6290363674416e-06
 596    -1.1951755005524e-05
 597    -8.0015523467716e-06
 598    -6.899745502796e-05
 599    0.0011536184575426
 600     0.015327594834955
 601    -0.00016762236054662
 602    0.00035936451842568
 603    -0.00012212862365478
 604    -0.00050777952149475
 605    0.00055026807884349
 606    9.4195997254318e-05
 607    5.5118949348205e-05
 608    4.8171470704226e-05
 609    0.0012436746029525
 610    0.00013939579805835
 611    -8.2506731770252e-06
 612    -9.2159733546269e-05
 613    7.2877285521204e-05
 614    -0.00053038614023353
 615    -0.0041097589046405
 616    -0.00012801202926368
 617    7.4068453627152e-05
 618    -0.00016643212723679
 619    0.00087369847918518
 620    0.0025616367114775
 621    9.2587340417843e-05
 622    0.00012431659183241
 623    -7.1424594629038e-05
 624    -0.0014949717857459
 625    -0.0017968510004822
 626    -0.00018072304528273
 627    -3.0208911105926e-05
 628    -7.9642391987891e-05
 629    0.0033341118663259
 630    -0.0047443736491908
 631    -0.044831038568229
 632    0.0071521693696949
 633    0.0068652493390034
 634    0.0050670288592772
 635    0.0069118338121051
 636    0.0038268857104558
 637     0.017511170983346
 638    -9.1348356418917e-05
 639    -0.00052964957257208
 640    -0.00047627039102218
 641    -9.8365889169394e-05
 642    0.00051321292037971
 643    0.00072376784563657
 644    0.0019937286143225
 645    0.00026240312162755
 646    0.0063029548686963
 647     0.013687418597898
 648    -0.0016537268686707
 649     -0.01041334489171
 650    -0.024144181635586
 651    0.0026304581010981
 652    -0.0001185787652653
 653    -0.00026870500844818
 654    -0.00010274679150794
 655    4.2105742443305e-05
 656    -0.00022828046497801
 657    -0.0034436447906888
 658    -0.038697958211171
 659    0.0011397716305935
 660    0.00073465074745531
 661    -0.00088899821278505
 662    -0.0033789760965088
 663     0.016907270207621
 664    -0.00033497140060905
 665    -0.00063483598587292
 666    0.00011986415310167
 667    0.0011426524942004
 668     0.018254542423262
 669    -0.000274634335276
 670    -0.00026690895394399
 671    0.00052978735225715
 672    -0.0038273291849729
 673     0.012983732330976
 674    0.00016756889864822
 675    6.5901386991859e-05
 676    0.00011541424192087
 677    0.0087590646360891
 678     0.013268695194683
 679    -5.6006064688503e-06
 680    -0.00023867613384709
 681    4.3361402939282e-05
 682    -0.0056884912497318
 683     0.035174745587505
 684    -0.00063052049183738
 685    -0.00049326193935472
 686    9.2348417452917e-05
 687    0.00091319527275645
 688    -0.0008785171776151
 689    -0.014487569042177
 690    -0.0026418061031584
 691    -0.00054435957111417
 692    0.00054257432708303
 693    -0.0020703056134301
 694    0.0080890800593939
 695    -0.013283815232802
 696    8.7854895589167e-05
 697    -0.0001331390933003
 698    0.00015103025053494
 699    2.1463557083031e-05
 700    -0.00023602435862581
 701    0.00024508633788215
 702    -5.4491087622674e-05
 703     0.011128016044563
 704    -0.0035138822846427
 705    0.0015126178572179
 706    0.00072079503633346
 707     0.011545482164258
 708    -0.0068918501238439
 709    0.0034824688188538
 710    0.00011076644632534
 711    -0.00011087226136086
 712    -0.00011665339708284
 713    -8.7687598694907e-05
 714    0.0003957173255532
 715    0.0010960294969476
 716     0.013544081345851
 717    0.00043055031513319
 718    -0.00018243729090971
 719    -0.00074055019439748
 720    0.0027224564695246
 721    -0.013452875629321
 722    -0.00061131335437107
 723    -0.00043095053059913
 724    0.0011742009190041
 725    -0.0022150949062346
 726    -0.0052384981533705
 727    0.0001373945331518
 728    0.00014969965226162
 729    0.00044306183969333
 730    -0.0012580302248582
 731    -0.0091590045566214
 732    0.0006051736393884
 733    0.00016478104525939
 734    -0.0002482356706774
 735    0.00023138222258516
 736     0.016129478813536
 737    -0.00050559785549176
 738    -0.00027209325822848
 739    -0.00010996175114741
 740    -0.0038428840263047
 741    0.00055901533060787
 742    -9.1136601522987e-05
 743    0.00020881669897436
 744    0.00025559353756668
 Sym= A
 Ene=               0
 Spin= Alpha
 Occup=    0.00000
   1     0.046070846847722
   2     0.008150332718426
   3    -0.066182017935114
   4    -0.081722734841953
   5    -0.012145963181213
   6    -0.011933309212146
   7    -0.076643068168226
   8    -0.012694709398607
   9    -0.012552094986231
  10    -0.080844375130756
  11      0.03827713874852
  12     0.035816261661378
  13      0.22963210938551
  14     0.043221158901348
  15     0.047244087033134
  16       0.2938297698022
  17    -0.023994843600329
  18    0.0043683991083549
  19    0.0048621171415376
  20    -0.003009452768773
  21    0.00089563105400668
  22    0.0088784767941923
  23    -0.00093801422491422
  24    -0.0013253098586546
  25     0.001265441363465
  26    0.0001196609895132
  27     0.005080079143223
  28    0.0092633529822521
  29    -0.024184465360585
  30    -0.0050302129278343
  31    -0.0061840285636436
  32    0.0012793787255405
  33    0.0094396051665539
  34    -0.0079874547305973
  35    0.0015322420823076
  36     0.011445666615226
  37     0.023498778310951
  38    -0.0043814106326214
  39    -0.033431792907306
  40     0.016078570220989
  41    -0.0042741223892459
  42     -0.02968417059296
  43    -0.00032820787839732
  44    0.0026177820996772
  45    0.00025670047072349
  46    -0.00028125386583999
  47    0.0002663271821143
  48    0.0013355131031048
  49    0.0018912747589927
  50    0.0001280428597898
  51    -0.0016315418818796
  52    0.00037509580120853
  53    0.0072354030165861
  54     0.013584164399331
  55    -0.036714791355656
  56    -0.0071193678024782
  57    0.00051197031247888
  58    -0.0078151460690564
  59      0.01058823859564
  60    0.00066737781545544
  61    -0.010396668054838
  62     0.012785576469447
  63    -0.0016701709359887
  64     0.031153796663534
  65    -0.037715175371839
  66    -0.0024884271837719
  67     0.022613546106998
  68    -0.033630834236864
  69    -0.00016894727009201
  70    0.00072460791377872
  71    0.0034142215231111
  72    0.00070394687399432
  73    0.00019462944699459
  74    0.0026194350401891
  75    -0.0004431588473515
  76    0.0013127713611624
  77    0.0023577525704532
  78    -3.020337837979e-05
  79        0.058671305099
  80      0.12299652663991
  81     -0.29720431117536
  82     -0.16306785017048
  83    -0.00043535293899059
  84    0.0039471675134112
  85     0.027482156107339
  86    -0.0013134336618379
  87    0.0041515814379969
  88     0.036548476976558
  89    -0.00032221762978761
  90    -0.016450858977867
  91      -0.1003862024939
  92     0.013781283098593
  93    -0.0045758375347624
  94     -0.11738974777125
  95    -0.016656237116975
  96    2.8925430966912e-06
  97    -0.0018282911010703
  98    -0.00048537002376122
  99    0.00068988420940344
 100    -0.013780193002721
 101    -0.00045092823251768
 102    -0.0035510273853145
 103    -6.9161346869149e-05
 104    -0.00060885664686318
 105    -0.0056516385094435
 106    -0.0085056982668957
 107     0.018696037773031
 108     0.019936785735834
 109    -0.0051241253079804
 110    0.0026432122142312
 111     0.016603930845527
 112    -0.0071920664319083
 113    0.0034297743774954
 114     0.020391922968831
 115     0.016818828531178
 116    -0.0094113345446826
 117    -0.058426715189588
 118     0.032831552014015
 119    -0.010026888317993
 120    -0.054726208333071
 121    -0.00085165910498404
 122    -0.0047709999565134
 123    0.00047061480639182
 124    0.0016059884810356
 125    -0.00097134466225394
 126    -0.00014225360924938
 127    -0.0032695458811999
 128    -8.7520425581381e-05
 129    1.4830364518891e-05
 130    -0.00030588190552339
 131    -0.0038527017380475
 132    -0.0047047318017495
 133    0.0085466153038031
 134      0.01756348808461
 135    0.0026639260394799
 136    -0.0016884838426457
 137     0.014267131449765
 138    0.0033287264499603
 139    -0.0025696448092767
 140     0.017504366174452
 141    -0.0090726324814174
 142    0.0039768773006248
 143     -0.04973728811675
 144    -0.010643333209036
 145     0.020627310165357
 146    -0.048935001220277
 147    -9.6238307350342e-05
 148    0.0010039613457751
 149    -0.0041226430434176
 150    -0.00082506793335759
 151    -0.00084129415576746
 152    -5.9920911448841e-05
 153    -4.8039465708398e-05
 154    -0.0031512831088916
 155    0.00059152555821096
 156    -0.0005035263550666
 157    -0.028068635344376
 158    -0.050255426644344
 159       0.1215064427122
 160     0.071833247085992
 161     0.010619871851675
 162    0.0091506726507539
 163    -0.034184908104013
 164      0.01343827135544
 165     0.011586760540525
 166    -0.046049552403272
 167    -0.037354263306632
 168    -0.032075093961922
 169       0.1219004545303
 170    -0.038100357522776
 171    -0.033503493211785
 172      0.14431350148807
 173    0.0050785357041046
 174    -0.0030824105585635
 175    -0.0030108803666951
 176    3.834864188909e-05
 177    0.00064095544064247
 178    0.0060648216958464
 179    -0.0018755421288065
 180    -0.00089832208252457
 181    0.0001148690946212
 182    0.00031898330376971
 183     0.018307964509009
 184    0.0036029988234638
 185    -0.026165814477286
 186    -0.051347316673038
 187    -0.049327975040615
 188     -0.12887647948604
 189      0.12792672486942
 190    -0.051674135903264
 191     -0.13551839310217
 192      0.13491949789386
 193      0.15417966509895
 194      0.40356900102532
 195     -0.39922164711616
 196      0.20482990284215
 197      0.54977092744139
 198     -0.54577175461657
 199     -0.02006736990008
 200    -0.0068194443692462
 201    -0.014147996740738
 202    0.0014034253490872
 203    0.0092095048304126
 204    0.0073304527379925
 205    0.00066753552320403
 206    -0.00030755928423929
 207    -0.0014037565558378
 208    -0.0011223768670583
 209     0.021554354868015
 210     0.043753600326203
 211     -0.10938133445236
 212    -0.051192422664854
 213    -0.025729101608944
 214     0.012093069994087
 215    -0.011871302994713
 216    -0.035328824036421
 217     0.014625946056905
 218     -0.01457001746894
 219      0.10144545778557
 220    -0.046107509997727
 221     0.044458886366115
 222      0.10102835173082
 223    -0.033415802433205
 224       0.0347973336066
 225    0.0027189420743654
 226    -0.0030455780979359
 227    -0.00065197856679095
 228    -0.0046545910970009
 229    0.0034952989104326
 230    0.0042340802127869
 231    -0.0044124214871926
 232    -0.00059293889846208
 233    -0.0067138915795107
 234    0.0038916324901251
 235      0.04305654343323
 236       0.0870661307956
 237     -0.20897493968164
 238     -0.12252415984335
 239    0.0012650675897868
 240    -0.049411687263473
 241    -0.010319353574771
 242    0.00078644557501664
 243    -0.067718180156707
 244    -0.013164507910504
 245    -0.0065358286676278
 246      0.19201140672303
 247     0.039739624486036
 248    0.0078644187619847
 249       0.2042580815084
 250     0.031541549501184
 251    0.0051522538741432
 252    -0.000766711858722
 253    -0.0028711597320968
 254     0.009062745432923
 255    0.0013511822042353
 256     0.006510781740556
 257    0.0011556122887919
 258    -0.0040634990801067
 259    0.0097624358910514
 260    -0.0021483405279427
 261     -0.04403176182365
 262    -0.087411202324716
 263      0.20361098327767
 264      0.13978475275691
 265     0.014596833726696
 266     0.028388514463152
 267     0.049268488123673
 268     0.018088659770179
 269     0.036282580759024
 270     0.067600024531609
 271    -0.052592520629396
 272     -0.10339901703927
 273      -0.1865028495699
 274     -0.05017978381677
 275     -0.10261449496293
 276     -0.21456470805027
 277    0.0080432593836608
 278    0.0032534547495781
 279    0.0075464717054009
 280    -0.00033326338136485
 281    0.0017809435076168
 282     0.012059982838436
 283    0.0059787405060551
 284     0.010091440714758
 285    -0.0011204659850983
 286    -0.0019146078067836
 287    -0.013685313769974
 288    -0.023590840296134
 289     0.053927783280014
 290     0.043343751236665
 291    -0.011056644026539
 292     0.022342156391967
 293    -0.023285096391907
 294    -0.015880690842569
 295     0.028086525865425
 296    -0.029029343003281
 297      0.03971405461251
 298    -0.080742702288666
 299     0.084506640337347
 300     0.061701893116935
 301     -0.07960846421183
 302     0.079567573520446
 303    -0.00098391989500525
 304    0.0060357425545909
 305    -0.0020472382410028
 306    0.00085657947579266
 307    -0.0059723929696622
 308    -0.00016680673494786
 309    0.0081630354723294
 310     0.001494511781726
 311    0.0025441978554929
 312    -0.0077944368691812
 313     -0.03678024804192
 314    -0.070676692071631
 315      0.16130495479618
 316      0.12172265258808
 317     0.016159708328779
 318    -0.036650460319201
 319    -0.031017297263213
 320     0.020205395743999
 321    -0.050766698493607
 322    -0.039465714368884
 323    -0.058441358389305
 324      0.13753048750526
 325       0.1130431901721
 326    -0.057998452657494
 327      0.16926723033402
 328       0.1109312406079
 329    -0.0018963133883006
 330    -0.0028270500982198
 331    0.0079498414281448
 332    -0.0044627337384995
 333    -0.0042371051649331
 334    -0.0024758136580034
 335    0.00070568231076563
 336     0.010840438761896
 337    -0.0078317429731504
 338    -0.0053567535926957
 339    -0.00043463055333998
 340    0.00079470080209621
 341    0.0067419623397164
 342    -0.0005483056327831
 343    -0.00010291010558521
 344    -0.00034978730841148
 345    -0.0025923303762464
 346    -0.0011149472130388
 347    -0.0017332455649013
 348    0.00014862369906489
 349    6.3337913104818e-05
 350    -0.00016475271463176
 351    6.5500823514221e-05
 352    6.1331086024242e-05
 353    -0.00011436032589384
 354    -0.0022261793073811
 355    0.0090530038214238
 356    0.00072544804250698
 357    0.0055085320609272
 358    -0.0053631292329057
 359    0.0019785498084342
 360    -0.0022245538604851
 361    0.0063165190536097
 362    0.00032782544359848
 363    -2.1874571014594e-05
 364    0.00016769776467669
 365    0.00024207682635087
 366    -0.00029835810234815
 367    0.0012562272690293
 368    -0.0044686542169492
 369    -5.9276292105289e-05
 370    -0.00021384567349192
 371    0.00092645157199928
 372    0.0016730981126164
 373    -0.0089163600638665
 374    -0.00027617937139427
 375    0.00010683126040176
 376    0.00078561605938138
 377    -0.010933536393112
 378    0.0068712588995929
 379    -2.4693099980228e-05
 380    -0.00019759512485268
 381    -0.00059158864276201
 382    -2.8596899473888e-05
 383    -0.0041031212895651
 384    -0.00020033202751066
 385    -0.00032733287959403
 386    0.00012271080244901
 387    -0.00040749032268295
 388    -0.0016132942243514
 389    2.3327512572474e-05
 390    0.00010550435997227
 391    -6.1763888077262e-05
 392    -4.7339488409361e-05
 393    -0.0032206170187899
 394    7.9760370699106e-05
 395    9.0389327871321e-05
 396    1.7344977252035e-05
 397     -0.00245402917167
 398    0.0048840343446776
 399     0.012233222728783
 400    -0.00046060367518166
 401    -0.0043136223797529
 402    0.0035044211388748
 403    -0.00093076789904927
 404    -0.0057184627316702
 405     0.001667839860859
 406    2.4637623463076e-05
 407    0.00014412841092819
 408    8.767392905653e-05
 409    4.0124432039645e-05
 410    8.6534240824777e-05
 411    -0.0035774632149354
 412    -0.010480410644843
 413    -0.0076834699692176
 414     0.004349064967666
 415    -0.0037179717637187
 416    0.0040947122579166
 417    0.0043147770220971
 418    0.00065322589350855
 419    -0.0087259523883894
 420    0.00027162066337089
 421    -0.00034493990762473
 422    -0.00052679814032698
 423    -0.00011793143953545
 424    0.00073145125799556
 425    -0.016391451209518
 426    0.0019563720027995
 427    -0.00028447781192044
 428    0.00042465924650283
 429    -0.0011633492889521
 430     -0.00282462766227
 431    0.00029535115189465
 432    -0.00022685988376492
 433    0.0006331375008443
 434    -0.00057328866229775
 435    -0.0032959795531937
 436     0.015355565281971
 437    -0.00033172797251834
 438    -9.2310798614232e-05
 439    0.00015091627268432
 440    -0.0033674275093247
 441    -0.0036090001061201
 442    1.5835534306292e-05
 443    0.00011890858125472
 444    0.00039930979661005
 445     -0.00205459284224
 446    -0.004630752910271
 447    -0.00021575126146789
 448    0.00011693003047158
 449    8.1428547864397e-05
 450    -0.0011669524428012
 451    0.0021790827791908
 452    -0.00028265121746032
 453    0.00054741482029109
 454    -0.00072718284122393
 455    5.7454022126398e-05
 456    0.00033407507500808
 457    0.0014449540943483
 458    -0.00035628465891217
 459    -0.00058195488936752
 460    0.00047614645630189
 461    0.00021015651402304
 462    0.00011187738054061
 463    -0.00090169428703798
 464    -8.4404787786632e-05
 465    2.096875548905e-06
 466    -4.3685497411514e-05
 467    -5.8172916629649e-05
 468    -6.7276067876165e-05
 469    0.00028844323991967
 470    0.0010249927062719
 471     -0.00108845228594
 472    0.00087220649332021
 473    0.0063471537580103
 474    -0.0062687859465823
 475    -0.00080206576268758
 476    -0.011205617951507
 477    0.0092666096721282
 478    -0.00018116272085026
 479    0.00044788969891665
 480    -9.3708946232812e-05
 481    -0.00014725331685573
 482    -6.225618626548e-05
 483    0.0017499892012072
 484    -0.0030754540398837
 485    2.1948950665341e-05
 486    -0.00090141153884899
 487    0.00021836100503469
 488    -0.0027226229843218
 489     0.021149619420301
 490    9.1076910700886e-06
 491    0.00091573878362228
 492    0.00041007043682285
 493    0.0032005794917985
 494    -0.015661859090072
 495    3.2189174592052e-05
 496    -0.00097783310341519
 497    -0.00033594013527008
 498    -0.00030757126994006
 499    0.00086388975174527
 500    2.8426989156762e-05
 501    -0.00011078784951802
 502    4.5439450748279e-05
 503    -0.00043324599454198
 504    0.00016210284231175
 505    1.5854530476766e-05
 506    -9.4237045587884e-05
 507    2.8970850615826e-05
 508    0.00071041665426317
 509    -0.0016605845995081
 510    -0.00011021078018614
 511    -8.5581753206598e-05
 512    0.00017726149912466
 513    -0.0013790943062365
 514    0.0025449975713101
 515    0.0052703478505581
 516    -0.0037129008161346
 517    -0.0017277164587184
 518    0.00084334033797988
 519    -0.0026211528613628
 520    -0.0051814008058041
 521    -0.0014111454850552
 522    -0.00022373894662383
 523    5.687062578448e-05
 524    -5.6719120226939e-05
 525    -0.00033315052767455
 526    6.6901094659637e-05
 527    -0.00091483410868134
 528    -0.0052212374002772
 529    0.0096298462951503
 530    -0.00055638215358129
 531    0.0046851068616429
 532    -0.0018862166436399
 533    -0.0047645196998626
 534    -0.0040611994115949
 535    0.0052986777065666
 536    6.1525020387689e-05
 537    -0.00012187925388184
 538    3.0129471847652e-05
 539    -3.9264181255282e-05
 540    -0.00053526691989121
 541    -0.0067267371445136
 542    -0.0031629918462663
 543    0.00048884598912593
 544    0.00017897985819978
 545    -1.7171041454326e-05
 546    -0.0076551421079701
 547    -0.010297553351827
 548    0.00031072190903863
 549    0.00026705286035899
 550    0.00045063541041333
 551    -0.0057923388788447
 552     0.010595199042904
 553    -0.00039731237894532
 554    -8.9476667980906e-05
 555    0.00015040667212304
 556    0.0023599663918074
 557    -0.0062547569287903
 558    0.00034894292973514
 559    1.513920857041e-05
 560    -0.00011454657454497
 561    -0.00013140690565792
 562    -0.00098550457913906
 563    -3.7547631911079e-05
 564    0.00011264597196351
 565     4.26748513857e-05
 566    -0.0019331807799845
 567    -0.0023328106315093
 568    4.072243280037e-05
 569    -3.3711709476261e-05
 570    5.7476914367241e-06
 571    -0.0030200205700628
 572    0.0048348355804705
 573     0.046229672031864
 574    -0.0041112778616172
 575    0.0040396357786857
 576    -0.0026687132614293
 577    -0.013076553331187
 578      0.01080366745157
 579    -0.017344997130338
 580    -0.00020340248898834
 581    -0.0004893850971873
 582    0.00064837170457006
 583    0.0002132850130971
 584    9.4010170780916e-05
 585    0.00084815306096649
 586    0.0068980643140164
 587    -0.024858221783574
 588    0.0041151525707602
 589    -0.00026846391583242
 590    0.00027218170004686
 591     0.011006608131507
 592    0.00089324946596477
 593    0.0063900144337907
 594    0.00012128528220069
 595    0.00035616667568694
 596    -0.00014006025282839
 597    -6.9170654555467e-05
 598    -2.3956044844145e-05
 599      0.01507358627591
 600     0.019602389024416
 601    -0.00087431732763442
 602    0.00014556529972506
 603    0.00023678415052488
 604    -0.00075270367807699
 605    -0.0053521097352677
 606    0.00024761729341676
 607    0.00048644488320005
 608    0.00028186116579937
 609    0.00077638685458356
 610    -0.0023904900665905
 611    -0.00027537500253241
 612    -0.00031817696475617
 613    -0.00017541317612893
 614     0.009118538349765
 615    -0.024569753696501
 616    -0.00084111578421429
 617    0.00071229141148705
 618    -0.0001416473491138
 619    0.0015728559931319
 620    0.0058419855528822
 621    -0.00031087131614098
 622    0.00056819625279474
 623    -0.00052389512499903
 624    0.0043515009014721
 625    -0.026645059587273
 626    -0.00061686818172401
 627    -0.00067441574798951
 628    -2.6460711478019e-05
 629    -0.0015904959736026
 630    0.0036170432669684
 631     0.014075440257223
 632    -0.0042845326310698
 633    -0.0015279868742479
 634    -0.0015817114499275
 635    -0.0038260795013885
 636    0.00029511040197344
 637    -0.0075239101321496
 638    0.00011625771822121
 639    0.00017492981682413
 640    6.0365308220447e-05
 641    4.3142448288721e-05
 642    -0.00012510821545853
 643    -0.00046902274609006
 644    -0.00057836615432661
 645    -0.0040317198021355
 646    -0.00083190144281865
 647    1.6207736022987e-05
 648     0.001157760807353
 649    0.0019412833481683
 650    0.00033184358867389
 651    -0.00069886445413138
 652    7.223645212216e-05
 653    -0.00013482142771556
 654    -5.1333363172668e-05
 655    -6.4526728167545e-05
 656    2.7935000197531e-05
 657    0.0017505865613948
 658    0.0049654660225195
 659    -0.0003632213445812
 660    -0.00030722048029972
 661    0.00014196482137743
 662    -0.00048134581415377
 663    0.0021272633802953
 664    -6.0733529616848e-05
 665    -6.9829690654919e-06
 666    -8.0107066007645e-05
 667    0.00027943492267429
 668    0.00033842833043402
 669    -6.8528712278709e-05
 670    9.7073751939597e-05
 671    0.00011140190693205
 672    0.00056039904048785
 673    -0.002191006512545
 674    -2.2433707907219e-05
 675    -0.00012583989473656
 676    0.00022509253689538
 677    -0.0024576042116274
 678    -0.0048448154215065
 679    -8.4421402148556e-05
 680    0.00014220144406086
 681    1.5301759549146e-06
 682    0.0030925982258321
 683    -0.014662663299851
 684    0.00020267153123595
 685    0.00026072652115714
 686    -9.2556652496145e-05
 687    0.00058641115539705
 688    -0.0038186261567812
 689    -0.003118640088088
 690    0.00020531079755372
 691    0.0019605902908377
 692    -4.6553039683653e-05
 693    -0.0012044697807626
 694    -0.0062923159345161
 695    -0.0014840368740228
 696    0.00027899784626628
 697     0.000152559691653
 698    0.0001740047505314
 699    5.0455289792887e-05
 700    -0.00023330211520729
 701    -0.0035317073372906
 702    -0.011145929796565
 703    -0.0078059800299473
 704    -0.0044974404045478
 705    -0.0029050730094611
 706    0.0024892828360858
 707    0.0034484534189994
 708    -0.0060161789170057
 709    -0.0070526363462876
 710    9.7100514453702e-05
 711    -0.00041202954197045
 712    -1.9389174249399e-05
 713    0.00032359172991803
 714    -5.7512551074479e-05
 715    -0.0040896755539964
 716     0.014075326697021
 717    -0.00019984712505181
 718    -0.00057707165891482
 719    0.0012273310993503
 720    -0.016639288165926
 721    -0.0045647618123497
 722    0.0012161873858801
 723    0.00035733507940613
 724    -0.0017327780870314
 725     -0.00258357972273
 726     0.012472979665317
 727    -0.00026810440463442
 728     0.000670287729302
 729    -0.00042120764841686
 730    -0.0031914802879391
 731    -0.0012521743963617
 732    0.00014793863595804
 733    0.00081387412079322
 734    -0.00062143937180181
 735    -0.0039832257045673
 736    0.0034683479303389
 737    -2.1143088609746e-05
 738    0.0002535070780426
 739    0.00023567032205343
 740    0.0019191953434724
 741    0.0027165267935079
 742    -0.0001557236720393
 743    -0.00023728602046129
 744    -0.00022923464600913
 Sym= A
 Ene=               0
 Spin= Alpha
 Occup=    0.00000
   1     0.028230870393622
   2    0.0050627566870055
   3    -0.041811009886436
   4    -0.049692730413064
   5    -0.022487080764807
   6     -0.02078147581554
   7     -0.05863829306133
   8    -0.023426640829418
   9    -0.021742636273714
  10    -0.061683060209919
  11     0.071377270995071
  12     0.064992975626942
  13      0.17721004292023
  14     0.088550322012106
  15     0.083545977880607
  16      0.23257557038333
  17    -0.011833875781324
  18    0.0023267214462743
  19    0.0033751596967113
  20    -0.0040805830036601
  21    0.0020439129157966
  22    0.0045096166365176
  23    -0.00088488319454339
  24    -0.0015231576868191
  25     0.001741462333083
  26    -3.8961533317001e-05
  27    0.0077904438603183
  28     0.014740260179184
  29    -0.036177247165572
  30    -0.016115378751238
  31    -0.0098546100243573
  32     0.001520551494629
  33    0.0067135038628762
  34    -0.013389759145277
  35    0.0019164246743434
  36    0.0083386967438232
  37     0.036474215893507
  38    -0.005434987095932
  39    -0.023568638195055
  40     0.038107172573322
  41    -0.0057438344536012
  42    -0.023068771730109
  43    0.00039973741329332
  44    0.0018407807043892
  45    0.00021770643649532
  46    -0.0012045930418384
  47    0.00022209006290822
  48    0.0014564635204151
  49    0.0019490205665307
  50    -0.00017371258401534
  51    -0.0022925542223628
  52    0.00091198467692705
  53    0.0092752615050102
  54     0.018288049270761
  55    -0.045587828888849
  56    -0.019598879026629
  57    0.0014172315069807
  58     -0.01152869401319
  59    0.0068036517427836
  60    0.0017160299008904
  61    -0.015599064983293
  62    0.0083953027836282
  63    -0.0050035003514693
  64     0.044103307720965
  65    -0.023768613899775
  66    -0.0044757383423999
  67     0.043106456939186
  68    -0.025057177744848
  69    0.00060690204129854
  70    0.00041662793837532
  71    0.0023526025489472
  72    0.0017073129275415
  73    0.00022388866245692
  74    0.0020981729063843
  75    -6.1004944980679e-05
  76    0.0013187056816778
  77    0.0027047597955041
  78    0.00057624121078869
  79     0.039338710678902
  80     0.081467266353723
  81     -0.18916764374456
  82     -0.12707585094877
  83    -0.017312806267282
  84    -0.013061777859165
  85    0.0098676428198952
  86    -0.021654415211938
  87    -0.016894968533773
  88     0.013152932613659
  89     0.064328064949251
  90     0.048276350693191
  91    -0.031251905404574
  92     0.062290386016893
  93     0.051770023523678
  94    -0.053614831812267
  95    -0.0095001602616734
  96    0.0052984288919527
  97    0.0034629170671193
  98    -8.2864536064502e-05
  99    -0.00024670956411047
 100    -0.0078651151557163
 101    0.0080570668082744
 102    0.0056941706602148
 103    -0.0003735191865934
 104    -0.0025582193310051
 105    -0.0085092991780063
 106    -0.015703174964629
 107     0.035525628957827
 108     0.028248671363465
 109    -0.0098728821122441
 110    0.0046989099991147
 111     0.013134213308583
 112    -0.013585815844465
 113    0.0060565687000258
 114     0.015668953375429
 115       0.0351670204754
 116    -0.016818043450272
 117    -0.047181073061582
 118     0.048530329834162
 119    -0.017409119303577
 120    -0.038824431457985
 121    -0.00099148075833998
 122    -0.003644769985872
 123    0.00055738466739954
 124    0.0017569463150349
 125    -0.0013408823852467
 126    -0.00086849441494596
 127    -0.0025195709259863
 128    -0.00049686590273077
 129    0.0016745250928532
 130    -0.0012414769387427
 131    -0.0057731670699038
 132    -0.0097768180520827
 133     0.019540882206685
 134     0.024173834797829
 135    0.0048025200824323
 136    -0.0055353580990809
 137     0.011874398546796
 138    0.0061179248341933
 139    -0.0076664303146873
 140     0.014116374743707
 141    -0.016992673069751
 142     0.018455682007872
 143    -0.042326270477173
 144    -0.018577948330582
 145     0.032175333301029
 146    -0.035258790827261
 147    -0.00038935122232552
 148    0.0010800906845955
 149    -0.0031029228174971
 150    -0.00080538373366204
 151    -0.0012853451344792
 152    -0.00041823418197786
 153    -0.00047836089297389
 154    -0.0026949847646805
 155    -0.00045753634379229
 156    -0.0016372205447326
 157    -0.020421455883253
 158    -0.036397419667383
 159     0.087701203758834
 160     0.053389547811057
 161    0.0095556253373066
 162     0.008273341752756
 163    -0.023222851150841
 164     0.012037019947799
 165     0.010449484919401
 166    -0.031552853395319
 167     -0.03412231636638
 168    -0.029430916664877
 169     0.083197433725198
 170    -0.033384324216085
 171    -0.029582229434997
 172      0.10103850016854
 173    0.0031688288501913
 174    -0.0026347445574115
 175    -0.002524081715228
 176    4.7353478659548e-05
 177    0.00074366390257175
 178    0.0044822715227776
 179    -0.0022085973083159
 180    -0.0014519293770399
 181    0.00014143742834649
 182    0.00020657682254984
 183     0.014589587940768
 184    0.0030414053204986
 185    -0.024853556928929
 186    -0.016726672416935
 187      0.14458056487438
 188     0.085448304694796
 189     0.097682525422082
 190      0.15237147246337
 191     0.089575396921304
 192      0.10334199804481
 193     -0.45373419942103
 194     -0.26765736563521
 195      -0.3051013535054
 196     -0.64485834225271
 197     -0.37838635143467
 198     -0.44245847084875
 199    -0.028150174519278
 200    0.0034500565667494
 201    0.0011868967392356
 202    0.0069069010427023
 203    -0.011566236196939
 204     0.010446140724152
 205    0.0015876187905564
 206    0.00018946879639147
 207    -0.0022083005943705
 208    -0.0014479512561015
 209    -0.044608826476676
 210    -0.088230467152051
 211      0.21212815307383
 212       0.1285344782172
 213     0.049343908707132
 214    -0.0048312724349307
 215    -0.021501663794235
 216     0.068420541064394
 217    -0.0056035029286778
 218    -0.026466889696837
 219        -0.18895857296
 220     0.018544713428937
 221     0.079844091381717
 222     -0.22227935722996
 223     0.013353581909155
 224      0.06935229190405
 225    -0.0045903712503468
 226    -0.0059660788455467
 227    0.0016214137938613
 228     0.009269749393323
 229    -0.0019891665187772
 230    -0.0047486237200646
 231    -0.0083488988082585
 232    -0.0034247221431845
 233     0.010914667198153
 234    0.00061122906048104
 235    -0.027943015946388
 236    -0.055538500099771
 237      0.13391217539858
 238     0.081947252189463
 239    -0.014390100392138
 240     0.029668255025953
 241    -0.016120864566747
 242    -0.017529119421862
 243     0.041510117445125
 244     -0.01952206825711
 245     0.055644227802091
 246     -0.11578268811124
 247     0.059948874823717
 248     0.040895255081643
 249     -0.13475904669366
 250     0.052338738527039
 251    -0.003361300439864
 252    0.0013260600229729
 253    -0.0047675563749601
 254    -0.0062058059255203
 255    -0.0044661406226376
 256    -0.0021401027142208
 257    -0.0029537329853098
 258    -0.0057939712647073
 259    -0.0067603944022348
 260    -0.0047580522650115
 261    -0.040895078554302
 262    -0.085039176095393
 263      0.20474840250178
 264      0.12415155500712
 265     -0.02086964194424
 266    -0.010122703924365
 267      0.04907001762632
 268    -0.025414802018843
 269    -0.011764886986514
 270     0.067476521697386
 271     0.076158073002685
 272     0.036307592144401
 273     -0.19148910575731
 274     0.065562474966571
 275     0.028972757158378
 276      -0.2063794110365
 277     0.010225929077772
 278    -0.0053683139764615
 279    -0.0021993183930171
 280    1.5628427023208e-05
 281    0.00023272922394552
 282     0.014070655899157
 283    -0.0071073956796845
 284    -0.0035254516119769
 285    -0.00065968777556285
 286    -0.0036201918094246
 287     0.051274591561392
 288      0.10551468992134
 289     -0.24557676541386
 290     -0.16749605442067
 291     0.058513095851809
 292    -0.019508770878395
 293      -0.0065738978655
 294     0.080645012430553
 295    -0.024313795608106
 296    -0.0087265813791674
 297     -0.22703243865022
 298     0.071220010320017
 299     0.023842399561726
 300     -0.25066055575569
 301     0.069071727829616
 302      0.02876279756867
 303    0.0057624551725778
 304    0.0021883314287341
 305    0.0011574678859568
 306    -0.0086486549663654
 307    0.0058778616956156
 308    0.0091041711623524
 309    0.0027026232651205
 310    -0.0025169520256463
 311    -0.014220851955876
 312    0.0066665696744762
 313     0.027823475731142
 314     0.056266371172788
 315     -0.12967293882553
 316    -0.092867953723775
 317    -0.028187918347794
 318     0.030090897988835
 319    -0.006757726002599
 320    -0.035264691792834
 321     0.042015147354491
 322    -0.0080914895746114
 323      0.10331683430091
 324     -0.11584868788552
 325     0.024050852566391
 326      0.10027262755871
 327     -0.13536466156758
 328     0.023908985975047
 329     0.003739660849177
 330    0.0020247126889836
 331    0.0017580743487939
 332    0.0032034127734395
 333    0.0072310249247909
 334    0.0061235070654504
 335    -0.0020024762064538
 336    0.0032141767036611
 337    0.0061202550734478
 338     0.011620992527943
 339    0.00061952029902506
 340    -0.0057295971971222
 341    -0.011044840379501
 342    -0.00077428883288047
 343    0.00012792834960287
 344    -0.0016381479719914
 345    0.00089299909178048
 346    -0.0021374753550441
 347    -0.0030762645014877
 348    0.00019442402057773
 349    -0.00013562338030884
 350    -0.00012694474505293
 351    0.00015928873814642
 352    -6.4719275809713e-05
 353    -0.0052428273659503
 354    -0.016133474004167
 355    -0.019042377681372
 356    0.0033924447590541
 357    0.0068923056121097
 358    0.0089209483048502
 359    -0.0058758446758506
 360    -0.011934602674235
 361    -0.022443155459233
 362    0.00016750883130439
 363    0.0001099465891292
 364    0.00039462555212577
 365    -0.00038880161633594
 366    0.00087932853455792
 367    -0.013760780049898
 368     0.021676877513386
 369    -0.00030276093656259
 370    -0.0013220609461802
 371    -0.0020648025584679
 372    -0.016768646911779
 373     0.011092756982823
 374    -0.002235059884539
 375    -0.00099157569602016
 376    -0.0026496157215585
 377    -0.016931265069238
 378    0.0058126980352377
 379    -0.0013136487801368
 380    -0.0010465090289172
 381    -0.0012998927481712
 382    -0.0020574820170951
 383    0.0051331756789037
 384    -0.00012417927373652
 385    0.00037331791495814
 386    -0.00043710137849733
 387    -0.0011074892667281
 388    -0.0021197066267799
 389    -0.00022827925656702
 390    6.4500897534642e-05
 391    -0.00059461371511963
 392    0.00031670886383012
 393    0.00070158240834747
 394    5.3312855372645e-05
 395    -0.00043485423348533
 396    -9.9756798348566e-05
 397    0.0022690171443637
 398    -0.0066708309297683
 399    -0.0085863833721921
 400    -0.00096673844977009
 401     0.003881314474592
 402    -0.011932993937136
 403    0.0032883446811711
 404    0.00099624562160277
 405    -0.010611465714345
 406    -4.706311258022e-05
 407    0.00020695353286325
 408    0.00034223200390562
 409    3.9640181465566e-06
 410    0.00010079179751493
 411    -0.00034498046061777
 412    -0.002723171434211
 413    0.0066288685928992
 414    0.0014730041215456
 415    -0.0051832676767872
 416    -0.0045193220939438
 417     0.001444582407883
 418    0.0062760719550349
 419    0.0023852538448707
 420    0.00035298059583528
 421    0.00021693922344277
 422    9.8920942234046e-05
 423    -0.00012993827399221
 424    0.00012518496458163
 425    -0.0065782793144577
 426    -0.00062545064320354
 427    9.4567186377681e-05
 428    0.00043858844840926
 429    -0.00031928000672065
 430    -0.0051089373933675
 431    -0.0010467414246765
 432    7.3732918765225e-05
 433    0.00045386951588935
 434    -0.00055101836343813
 435    0.0016898108656073
 436    -0.0058863368756322
 437    -0.00067884916393662
 438    -0.0002842753014319
 439    -0.00010709090088929
 440    -0.00010020279465685
 441    0.0014156177430936
 442    -0.00021671594772938
 443    0.00062190689409032
 444    0.00045247702175653
 445    0.00086064627913561
 446    0.0023720021423772
 447    8.853511435315e-05
 448    6.650080054118e-05
 449    -0.00047360179311744
 450    -0.0098555869916773
 451     0.015400336725679
 452    -0.00049615244890366
 453    -0.00055343689423209
 454    0.00036782561432965
 455    -0.00047159102615364
 456    0.0018567145320291
 457    0.0045770385016516
 458    0.00098174152311199
 459    -0.00040528459904634
 460    -0.00045695701068165
 461    -0.00088298330850086
 462    0.00027368736575198
 463    0.0013238078431578
 464    -9.1116568824236e-05
 465    -8.312772130174e-07
 466    -7.0936717055738e-05
 467    8.1345512501078e-05
 468    -6.2693640321865e-05
 469    0.00046586640309338
 470    0.0015115757345484
 471    0.0027779494578521
 472    -0.0091193510246691
 473    -0.0018742134281912
 474    -0.0046421327058763
 475     0.014053550318904
 476    0.0015824258339839
 477    0.0047167760124926
 478    7.4279894493474e-05
 479    -0.00014200952068545
 480    -0.00040661859604069
 481    0.00013544807486652
 482    -0.00035052328652856
 483    -0.002203479219883
 484     0.018585290976685
 485    -0.00050475584665048
 486    0.00026703344076541
 487    1.4844892501615e-06
 488    0.0030355307538143
 489    -0.0081851393290872
 490    0.0013453594928039
 491    -0.00064917575313244
 492    0.00012478877025509
 493    0.0045842425394276
 494    -0.013886443813393
 495    0.0011139447856366
 496    -0.00015559951267284
 497    -0.0004907734065568
 498    0.00050725132360541
 499    0.00032877848515903
 500    0.0002029046121261
 501    -0.00011847617257562
 502    -0.00010955866595411
 503    0.00066627604155214
 504    -0.0049537516066948
 505    0.00033991574862647
 506    0.00024787861363343
 507    0.00013752546724942
 508    -0.00037818198835064
 509    -0.0018046122039168
 510    7.3293322798317e-05
 511    -0.00017776973380467
 512    2.245826405414e-05
 513    0.00018127512091496
 514    -0.0012300765292913
 515    0.0018841954261401
 516    0.0014952649439859
 517    0.0011490047508394
 518    -0.00012442569233204
 519    0.0043275010313482
 520    0.0016615357983859
 521    0.0047534764944957
 522    0.00017640996399404
 523    -0.00013588853366981
 524    8.8363724354533e-05
 525    -0.00018252653684965
 526    -6.284020736765e-06
 527    -0.00023003462353199
 528    -0.0022516759221234
 529    0.0060135165746538
 530    -0.0055458745334067
 531    -0.0017666715405797
 532    -0.0003160132854466
 533    0.0013875815364087
 534    0.00041262635744229
 535    -0.0057690181605876
 536    -8.7711897743914e-05
 537    -0.000133880259887
 538    -7.8479163261862e-05
 539    -0.00010154031709689
 540    -0.0001319104505054
 541    -0.0092811121924143
 542    -0.0032252840234554
 543    0.00024686287390837
 544    0.00034940049964024
 545    -8.3644228101557e-05
 546    -0.002407403001515
 547    0.0057546939160895
 548    0.0003551123157767
 549    -0.0002657915755747
 550    0.00035946784204693
 551    0.0013888550576178
 552    -0.0059897069052984
 553    -0.00018485893284489
 554    -0.00033288178104084
 555    -0.0002475664700751
 556    -0.0013412884291068
 557     0.003914565414539
 558    -0.00012530506066737
 559    0.00031821502362901
 560    0.00018740932670643
 561    -0.00020644897754244
 562    -0.0093486915772409
 563    0.00032791265851799
 564    -0.00041032472070051
 565    0.00032629358964319
 566    0.00054100282719638
 567    0.0023930512084215
 568    -0.00014344221921242
 569    8.416344044298e-05
 570    -3.279905660543e-05
 571    -0.00052958788390995
 572    0.00030231398041552
 573    0.0092442450111212
 574    -0.0029441886876737
 575    0.0066053794683431
 576    0.0050244694621685
 577    -0.0058347878620114
 578     0.010568164344738
 579    -0.002230657480329
 580    0.00025131150099782
 581    -0.00033034648802827
 582    0.00018901033598344
 583    -0.00016602139544437
 584    -0.00047768657133077
 585    0.0018075498309689
 586    0.0079845282457442
 587    -0.013512241388332
 588    0.00097747336307385
 589    -0.0040659833216382
 590    0.0018869996313259
 591    0.0066928241407617
 592    -0.0019144674112417
 593     0.014550027704553
 594    0.00013200041430559
 595    0.00058196453966701
 596    0.00038860019731008
 597    -7.3461871936407e-05
 598    7.1575650168953e-05
 599     0.021593085892379
 600     0.029265817470189
 601    -0.00069851331263904
 602    0.00080797160605119
 603    0.00082691643074961
 604    0.0022687640827732
 605    -0.015596587056946
 606    0.0010582140970393
 607    0.00070750816714341
 608    0.0004469845089123
 609    0.0038674556758645
 610    -0.002667949255854
 611    -0.00036269100894314
 612    -7.7515300005734e-06
 613    -9.8206925138285e-05
 614    0.0067544052923708
 615    -0.012538442679908
 616    0.00017535946443565
 617    3.1598364301585e-05
 618    -0.00017375764806193
 619    0.0016213424153107
 620    0.0050528120865367
 621    -0.0001301906202565
 622    0.00058933321872402
 623    -0.00016805828526827
 624    -0.0016496475363258
 625    -0.0010635103408794
 626    -0.00015150138069215
 627    -0.00030721933285725
 628    0.00019328810549291
 629    -0.0011309078766113
 630    0.0025734664816719
 631    0.0090350048122912
 632    -0.0032887660975443
 633    -0.00088462837441963
 634    -0.0012554855471329
 635    -0.0033746059929452
 636    0.00047090079850954
 637    -0.0054058314924117
 638    0.00010340208499047
 639    9.8309697749525e-05
 640    3.9169717203293e-05
 641    5.3740613151107e-05
 642    -9.3623247439596e-05
 643    -0.00049484541873721
 644    -0.0010958307411382
 645    -0.0021357235449736
 646    -0.00053337905162024
 647    0.00044700692064402
 648    0.0011076866665312
 649    0.0012540765756339
 650    -0.0013774086586497
 651    -9.2703288189659e-05
 652    8.7954668582484e-05
 653    -6.1954906091267e-05
 654    1.0516424733659e-05
 655    -1.9457725145831e-05
 656    -2.0858177574486e-05
 657    -0.00080334659449017
 658    0.0013356605032966
 659    -0.00011495756781996
 660    -0.0001627176616417
 661    2.2479453615647e-05
 662    -0.00087982140223182
 663    0.0025235866233309
 664    -3.9253217574137e-05
 665    -4.6182867192264e-05
 666    4.4082089381465e-05
 667    0.00021935033419891
 668    0.0012678401980878
 669    -8.930151631716e-05
 670    5.6809081347457e-05
 671    8.2416533339311e-05
 672    7.3502135475891e-05
 673    -0.00041099239158906
 674    -2.4061698799025e-05
 675    -6.978921793716e-05
 676    0.00019704353594059
 677    -0.0015762033084993
 678    -0.0033933907408655
 679    -4.2762363069289e-05
 680    8.2135236749368e-05
 681    -2.4090458580257e-05
 682    0.0021017854018294
 683    -0.010132500764387
 684    0.00017395139463353
 685    0.00021352106305243
 686    -5.7982580908823e-05
 687    -0.00024026862230094
 688    -1.1724284671156e-05
 689    0.0088082522884566
 690    0.0017898792396746
 691    -0.001622893755876
 692    0.0015309112244965
 693    0.0030371394827746
 694    0.00071946039352349
 695    -0.00031358940331687
 696    -0.0003047704992256
 697    -3.0633412188705e-05
 698    9.1189905582882e-05
 699    9.9679519774004e-05
 700    -0.00014947274294415
 701    0.00080879204465107
 702    0.0015515007884724
 703    0.0088510444621219
 704    -0.0010104664731487
 705    -0.0037394676763516
 706    -0.0037990425140217
 707    0.00054661361983059
 708    0.0059673797621938
 709    0.0080157016522906
 710    0.00046098330406001
 711    0.0003565932690078
 712    0.00029371950740256
 713    -0.00026245525174648
 714    0.00055891046864439
 715    -0.0015834057696811
 716    -0.0012009217497795
 717    0.00041573235746352
 718    -0.0002323769353503
 719    -0.00080612969225687
 720    0.0037178072102711
 721    0.0028258232953431
 722    -0.00099597089112784
 723    -0.00092385157288782
 724    0.00066096982965028
 725    0.0040510507161564
 726    -0.015444632640817
 727    0.00038471286297997
 728    0.00034245836277517
 729    0.00093925562748171
 730    -0.0023419091000942
 731    0.00045295685327329
 732    0.00017898258317334
 733    -4.9172200607107e-05
 734    3.5713942755365e-05
 735    0.0023108667329455
 736    -0.004599983261382
 737    7.6806137078174e-06
 738    -8.807532188023e-05
 739    -0.00031109742774563
 740    -0.0026668404318743
 741    -0.0029219187822294
 742    4.2213714954849e-05
 743    0.0001674754943819
 744    0.00023072831358017
 Sym= A
 Ene=               0
 Spin= Alpha
 Occup=    0.00000
   1     0.015988174396426
   2    0.0028322854255852
   3    -0.025360249046187
   4     -0.02234614941786
   5    -0.0032458987636809
   6    -0.018466551372448
   7    -0.039056790605034
   8    -0.003614635722018
   9    -0.019166065267446
  10    -0.041017412999292
  11    0.0095737099165642
  12     0.057901774365217
  13      0.11866472259582
  14     0.012915528523216
  15      0.07571378849924
  16      0.15815617859676
  17    -0.0080913034235456
  18    0.0032350143297099
  19    0.0019402265677721
  20    0.00013468928581822
  21    0.0014677183555697
  22    0.0035167376089132
  23    0.00032044520021321
  24    -0.00087516391212023
  25    -0.00046964733015238
  26    -0.00011945359887082
  27    0.0017423497710599
  28    0.0033599156691333
  29    -0.008539362737357
  30    -0.0027354957417743
  31    -0.0018667977929794
  32    0.0019332390347597
  33    0.0045455576849576
  34    -0.0022108015755651
  35    0.0021240958440334
  36    0.0055133445903285
  37    0.0077221224705119
  38    -0.0072060198448666
  39    -0.016602696963522
  40    0.0032568327148963
  41    -0.0038616203217288
  42    -0.013842541148869
  43    -8.3464460763059e-05
  44    0.0011455678465358
  45    0.00012338088904882
  46    -0.00018834611142153
  47    0.00047140996018704
  48    0.0004888411122572
  49    0.0011004932882135
  50    0.00021886179623019
  51    -0.00053787002450417
  52    0.00057133060031372
  53    0.0075543993133831
  54     0.014692198505284
  55    -0.034687476484871
  56    -0.020493616876186
  57    -0.00062981927751601
  58    -0.0090375817469367
  59     0.004239623763155
  60    -0.0010085331569998
  61    -0.012286792671459
  62    0.0056826457738744
  63    0.0021560532303552
  64     0.034122997315928
  65    -0.014605876665916
  66    0.0050537117707012
  67     0.036678865332441
  68    -0.019129980010778
  69    0.00065930072303488
  70    0.00010819016209657
  71    0.0014384456940313
  72    0.0012681551790113
  73    -0.00038155895770997
  74    0.0014070818758527
  75    0.00049532872423015
  76    0.0010339626592403
  77     0.002135466154685
  78    -9.2220376166601e-05
  79     0.024575902119449
  80     0.052246983093254
  81     -0.12571564695679
  82     -0.06930506171387
  83     0.011798001526483
  84    -0.015988347104465
  85    0.0041293865917957
  86     0.014960515637895
  87    -0.020615987891159
  88    0.0055218007647579
  89    -0.046212502762325
  90     0.061209311298981
  91    -0.014712269594084
  92    -0.036635891918003
  93     0.055687227180272
  94    -0.015353213386017
  95    -0.0062392831424084
  96    -0.0035071482947138
  97    0.0046536968114481
  98    0.00065438134726594
  99    0.00069479004682622
 100    -0.0052686928446172
 101    -0.0064400884911731
 102     0.007432550704376
 103    0.0016108862995569
 104    -0.0013267037000518
 105    -0.0015476621198781
 106    -0.0015377249862201
 107    0.0038994566758675
 108    0.0039890493919051
 109    -0.0002215628718796
 110    0.0035911201593505
 111    0.0076683011738749
 112    -0.00036164090588013
 113     0.004420250589071
 114    0.0099113770098743
 115    0.00016052506847743
 116    -0.012771576233806
 117    -0.027100095385876
 118    0.0049257480234632
 119    -0.012117010780111
 120    -0.028961274009075
 121    -6.2685532520374e-06
 122    -0.0022495817241751
 123    0.00035694752483625
 124    0.00032568111210221
 125    -0.00098487353257619
 126    -0.00019758039207699
 127    -0.0022126887936014
 128    -0.00021402195018036
 129    -0.00053595574203214
 130    -0.0010940092378957
 131    -0.0053840020140138
 132    -0.010247548858933
 133     0.022146006155872
 134     0.020307945075777
 135    0.0018836226656951
 136    -0.0066699613937651
 137    0.0090497038537987
 138    0.0027342530390552
 139    -0.0091378374249024
 140     0.010499837216072
 141    -0.0066147443693263
 142     0.023659472759313
 143    -0.032265501128994
 144    -0.010016893408986
 145       0.0316833356604
 146    -0.024529037504428
 147    -0.00056317325269285
 148    0.0005756702622517
 149    -0.0020781735548105
 150    -0.00099768469359362
 151    -0.00051775369822508
 152    -0.00026134611158633
 153    -0.00023203610551063
 154    -0.0019774047441758
 155    -0.0010349558734588
 156    -0.00080721266788593
 157    -0.013723769956119
 158    -0.024991922678695
 159     0.060605094222773
 160     0.035337999744282
 161    0.0046073488596215
 162    0.0063620697289345
 163    -0.015620769129184
 164    0.0059024321998344
 165    0.0079570471037825
 166    -0.021249555181149
 167    -0.016290358224921
 168    -0.022813379768679
 169     0.056728386147652
 170     -0.01720413835325
 171    -0.021813577639531
 172     0.066736926816077
 173    0.0021762420639977
 174    -0.0013197650541317
 175    -0.0019100532710855
 176    -0.00013090597974243
 177    0.0004087104342099
 178    0.0032061640234947
 179    -0.00097430557620653
 180    -0.0011877652768798
 181    5.656296263577e-05
 182    0.00027580745599252
 183     0.013446940290129
 184     0.002494670939097
 185    -0.013581395515218
 186     -0.04475515226864
 187       -0.139762821909
 188      0.13755656424945
 189     0.056120825606599
 190     -0.14785125268033
 191      0.14567544239301
 192     0.059257527254192
 193      0.44416770726087
 194     -0.43636811297862
 195     -0.17764113739514
 196      0.61436344525439
 197     -0.61078642920591
 198     -0.24111016060747
 199    -0.010976433107609
 200    -0.010383223527988
 201    0.0083103744413617
 202    -0.018048228517437
 203    -0.003214473153172
 204    0.0052992727701885
 205    -0.0021717556814239
 206    0.0011770818874385
 207    0.0075295792360307
 208    0.0017334693991814
 209     0.041578059387423
 210     0.083881935529124
 211     -0.20267472193339
 212     -0.11523848860029
 213    -0.047311044352021
 214    -0.020117742161301
 215    0.00087915125739897
 216    -0.064950362689788
 217    -0.025189345820593
 218    0.0012271756708933
 219      0.18191817897208
 220     0.076395349707752
 221    -0.0032093353576364
 222      0.20169361179113
 223     0.066846387356824
 224    -0.0031679937713972
 225    0.0045971951803038
 226    0.00021879937668721
 227    -0.0003338023846724
 228    -0.0084450595976739
 229    -0.0044106369196462
 230    0.0068265187571947
 231    0.00074480210041598
 232    0.0023561857087764
 233    -0.0079506817483074
 234     -0.01220163602053
 235    -0.040352121048942
 236    -0.081324802079682
 237      0.18610713671086
 238      0.13841775462752
 239     0.019081134413829
 240     0.045367137842513
 241    -0.011312356939536
 242     0.024961109069194
 243      0.06234728243541
 244    -0.013764112121242
 245    -0.071459033049884
 246     -0.17319758435993
 247     0.041690222471534
 248    -0.078688381428187
 249     -0.20441930515355
 250     0.041455560738221
 251    -0.0049450128139436
 252    0.00078941068525625
 253    -0.0037958435520627
 254    -0.008790660967045
 255    0.0050144237270765
 256    -0.0053922578969498
 257    -0.0044634031862229
 258    -0.0038692015195493
 259    -0.0064040351224601
 260     0.010609424716964
 261    -0.020266182218039
 262    -0.042326855795316
 263      0.10004910925845
 264     0.065117300285238
 265     0.025532485845261
 266    -0.019618280843195
 267     0.023718954659559
 268      0.03264478100254
 269     -0.02507242798842
 270      0.03299218611744
 271    -0.093986069434132
 272     0.072194825484348
 273     -0.09210584360168
 274    -0.093600348894064
 275     0.072193906310616
 276     -0.10488376295541
 277    0.0053420508246612
 278    0.0068421313534513
 279    -0.0053797095831643
 280    0.00086195648623887
 281    0.0014693793243429
 282    0.0052375186305941
 283     0.010849933395417
 284    -0.0082094007153073
 285    0.0020285291674689
 286    -0.0032652353923379
 287    -0.048527221972922
 288     -0.10210759787345
 289      0.23497600705476
 290      0.16648279898096
 291    -0.057482635035005
 292    -0.014424851729071
 293    -0.017032154086439
 294    -0.078987995152044
 295    -0.019112561750483
 296    -0.021216016210512
 297      0.22336268002111
 298     0.052542003163395
 299     0.062512369566902
 300      0.24604358887533
 301     0.061109984249181
 302     0.059172733851554
 303    -0.0051999461653208
 304     0.004740081780654
 305    -0.00090899919727313
 306     0.010659034684828
 307    0.0034161955189738
 308    -0.0065028668921953
 309    0.0068805686322672
 310    0.0033121704496148
 311     0.012746357009763
 312     0.007964852788285
 313     0.052678371314747
 314      0.11032602520413
 315     -0.26456288031179
 316      -0.1574455866865
 317    0.0083198123759494
 318     0.063352249082794
 319    0.0071143444218792
 320    0.0097876595859735
 321     0.086363957393567
 322     0.010255672468426
 323    -0.030055419546651
 324     -0.24754920108496
 325    -0.028017410993109
 326    -0.022442670097221
 327      -0.2570770515386
 328    -0.029833244198785
 329    0.0053875959322459
 330    -7.4743265081765e-05
 331    -0.002636990755432
 332     0.011144333821615
 333    -0.00089492365198474
 334    0.0081377137234941
 335    -0.0026083840543832
 336    -0.0021610509453002
 337     0.015501272217497
 338    -0.0049789738563161
 339    0.00014341786559172
 340    -0.0017433601361326
 341    0.0025522954399788
 342    8.7922498825744e-05
 343    -0.00010695682098988
 344    -0.0010567151546026
 345    0.0027702252746732
 346    -0.00031038618546606
 347    -0.0021206117817454
 348    0.0001305923390752
 349    -0.00027936969632691
 350    0.00013843247906796
 351    6.2445855201547e-06
 352    -7.8062581121925e-05
 353    -0.0011412666255893
 354    -0.0036225532722419
 355    -0.0043370570912972
 356     0.010591350535114
 357    -0.0042592571241914
 358    -0.00039165994671597
 359    -0.012498756253356
 360    0.0048029683356105
 361    -0.00094450647104623
 362     0.000164857725406
 363    -0.00054452167797989
 364    0.00044551168954876
 365    -0.00014624696642021
 366    0.00024636085100078
 367    0.0014565752350936
 368    -0.010680518763345
 369    0.00041171864368052
 370    -9.9662287573616e-05
 371    -0.00015346008495996
 372    -0.0091300934287598
 373       0.0178489384224
 374    -0.0011426731808453
 375    -0.0008298110147614
 376    -0.00064374720712527
 377    -0.0038304575913115
 378    0.00064847842035528
 379    -0.00072639879031407
 380    0.00034678546939412
 381    -0.00012797023625622
 382    -0.00096367136842196
 383    0.0017737621433483
 384    -0.00013510267698492
 385    0.00016586951661961
 386    -0.00010143371986688
 387    0.00024680359187637
 388    -0.0032930666840346
 389    -0.00016690667869894
 390    -4.2492763771113e-05
 391    -0.00022029582768218
 392    -0.00037673147145269
 393    -0.001464568977536
 394    -8.8243058762044e-05
 395    -7.393292848819e-05
 396    -5.8779915905659e-05
 397    -0.0027464876418395
 398    0.0049833176778472
 399     0.025460009637184
 400    -0.0014684986314751
 401    -0.0067869803881783
 402    0.0055888228212094
 403    -0.0022441809721124
 404    -0.0096745804044619
 405    0.0058133719654414
 406    0.00066967062249647
 407    -0.00039153515494758
 408    -0.0004230254769759
 409    -0.00016213182514348
 410    4.1573398237189e-05
 411    0.00043615481351107
 412    0.0010989412115642
 413    0.0027155458378403
 414    -0.0009342756919388
 415    -0.0039354626906787
 416    -0.0050337196060135
 417    -0.003036750314563
 418    0.0078385202742394
 419      0.01350339075686
 420    0.00016229235969097
 421    0.00016429701083524
 422    0.00092983712132359
 423    -0.0002181908783515
 424    -0.00011668184614714
 425      0.00550766044778
 426    0.0053452461872207
 427    0.00022826287917954
 428    -0.0008430776421604
 429    0.0013035841843656
 430    0.0022047480151421
 431    0.0076385142339492
 432    -0.00024664170697694
 433    -0.00064989107433635
 434    0.00064123114461828
 435     0.002768946401102
 436    -0.020294269458316
 437    0.00017445303371052
 438    0.00095402003753517
 439    0.00048808999712219
 440    0.00027045436391977
 441    -0.005800165388861
 442    -0.0002948208368169
 443    0.00029579018943863
 444    7.2225395237593e-05
 445    -0.0015450478476749
 446    -0.0030861198401843
 447    0.00021419403087867
 448    -7.3947297329668e-05
 449    0.00026464676706403
 450    0.0081881069473997
 451    -0.023676903061877
 452    0.00039051122228971
 453    0.00020118127970832
 454    -3.4706619022977e-05
 455    -0.0017857938516471
 456    0.0078919361394913
 457     0.029024804278174
 458    0.0019152375505568
 459    -0.0020454958951625
 460    -0.001970178734281
 461    -2.6285418078507e-05
 462    -0.00087602174976932
 463    -0.0014469249373695
 464    5.2635428529358e-07
 465    -1.7614231317939e-05
 466    0.00014371846249616
 467    -0.00014196440032369
 468    -7.2864589955822e-05
 469    0.0041542077046111
 470     0.011434590887969
 471     0.027010270926012
 472    -0.0024137410436649
 473    0.0062687405488542
 474    0.0071931966240139
 475     0.011482647902674
 476    -0.021755600746922
 477     -0.01968336205798
 478    0.00025349977566914
 479    0.00027644138126639
 480    -0.0005038765880475
 481    0.00034113548292782
 482    0.00049594114769006
 483     0.013030914536967
 484    -0.021167583555676
 485    2.1790695381533e-05
 486    -0.0021594210742853
 487    -0.0018943363052725
 488     0.016658245761144
 489    -0.021569621430189
 490    0.0026780834016426
 491    -0.0011826126216405
 492    -0.0028969930047471
 493     0.012530971467806
 494    -0.0058772714932524
 495    0.0022588248888686
 496    -0.0023297250147584
 497    -0.00010003975422907
 498    0.0012373075142133
 499    -0.0094295195837689
 500    -1.4871185173242e-05
 501    6.0892937704038e-05
 502    -0.00073807318882476
 503    0.0021357836436304
 504    -0.0077395330664251
 505    0.00063611084677001
 506    -5.0812483349769e-05
 507    -2.8547121911886e-05
 508    0.00013637193876053
 509    -0.0075455832369229
 510    -2.2863441710465e-05
 511    -0.00069087041051967
 512    0.00016358520687488
 513    0.0016031192970131
 514    -0.005249272658496
 515    -0.016343926541022
 516     0.002406613304646
 517    0.00048449654841578
 518    -0.0039384349459639
 519    -0.006316347677182
 520    0.0061700800458518
 521    0.0038564102336155
 522    -0.00043653342987772
 523    0.00010097218131988
 524    -0.00019907344969301
 525    -0.00036132425649627
 526    -0.00014726823080052
 527    -0.0029497664233694
 528    -0.010770934229241
 529    -0.0027020593047428
 530    -0.0025797295439309
 531    0.0038030559630717
 532    0.0055597376643119
 533    -0.0051551038655685
 534    -0.0044893003020705
 535    0.0010812340625024
 536    -0.00019240409259377
 537    0.00063764489351017
 538    -8.4632817126951e-05
 539    3.8804623376012e-05
 540    5.9857269068476e-05
 541    -0.0037685634603666
 542    0.0018534429049451
 543    7.3383116617924e-05
 544     0.000333719347495
 545    0.00013003894480169
 546    -0.025594578271835
 547    -0.0028096179163915
 548    0.0012708948312912
 549    -0.001549315233244
 550    -0.0012712036893004
 551    -0.0033746584286364
 552     0.013873103057585
 553    -0.0003054864735639
 554    -0.00010508621319191
 555    0.00032211766351573
 556    -0.0049868013464894
 557    0.0097487651457294
 558    0.00024662262757823
 559    -0.00011207905990591
 560    -0.00027375508326683
 561    -0.0052890554833259
 562     0.012532668544072
 563    -4.1950385666953e-05
 564    8.8811465008555e-06
 565    -0.00082564012721825
 566    0.0049194451418818
 567    0.0054624488840606
 568    9.656170306972e-06
 569    -0.00044277176771888
 570    0.00057066301684784
 571    0.00087669543585179
 572    -6.3248399792973e-06
 573    -0.022788535116228
 574    0.0025420835919142
 575    0.0055013413694884
 576    0.0072698413615163
 577     0.007488227633928
 578    0.0012613105049493
 579      0.01969457090825
 580    -0.00022297980912025
 581    -4.3098759381684e-06
 582    -0.00056390690722647
 583    0.00026563830293559
 584    -0.00010150834408429
 585    -0.0028985271610507
 586    -0.012444922409632
 587      0.01648930577257
 588    -0.0032378587066826
 589    0.0031349751799039
 590    -0.0053834844094851
 591    -0.0082465687700533
 592    0.0041814086950441
 593      -0.0107478196805
 594    -9.6397654818964e-06
 595    -0.00078973568502861
 596    8.9440165747934e-05
 597    0.00022186956835536
 598    0.00016661872660524
 599    -0.031514213504954
 600    -0.022348360984777
 601    0.0014958844919423
 602    -0.00029904456850001
 603    0.00073445494445178
 604    -0.0021391130755641
 605    0.0057025713554416
 606    -0.00027885209107144
 607    -0.00039531640339642
 608    -8.5664428634393e-05
 609    -0.0041369381762593
 610     0.013434992266821
 611    -0.00037257682897704
 612    0.00036550597381288
 613    0.00013951337876444
 614    -0.0025136951083604
 615    0.0040297073852386
 616    0.00028120885191437
 617    -0.00034524539503405
 618    -0.00029199620042711
 619    -0.0010478206187204
 620    -0.0073499415413689
 621    0.00018974626830685
 622    -0.00044152511886356
 623    0.00067135163508173
 624    -0.0073608872342982
 625     0.023241591267554
 626    0.00014833424740247
 627    0.00046971044844167
 628    -0.0003814968144814
 629    -0.00081735049777287
 630     0.001736980119743
 631    0.0072511503713369
 632    -0.0020845945299483
 633    -0.00069330720079296
 634    -0.00059308947952576
 635    -0.0020568712776273
 636    -0.00026450996971237
 637    -0.0032857965798259
 638    8.5265834311628e-05
 639    9.0501541905806e-05
 640    5.1433499914429e-05
 641    2.3124931469977e-05
 642    -7.1080127927712e-05
 643    -0.00031953497898594
 644    -0.00072870150036436
 645    -0.00066027763739078
 646    -0.00064469597867606
 647    0.00050876791584663
 648    0.00067039685491771
 649    0.0006024987407136
 650    -0.0010757442449384
 651    6.1353913612608e-05
 652    4.4339453310865e-05
 653    -0.00012197020259754
 654    -2.8733459655885e-05
 655    -1.3726800119104e-05
 656    2.3900216858401e-05
 657    0.0002662352989242
 658    -0.0011631823268328
 659    -0.00016884274508627
 660    -0.00031190393567991
 661    5.7737733455629e-05
 662    -0.00045669435173806
 663    0.0016276310517274
 664    -9.1011034187692e-05
 665    7.8690083530505e-06
 666    -1.0058725798322e-05
 667    -7.9177556058393e-05
 668    0.00064686987534071
 669    -7.2249917365365e-05
 670    0.00014409804615456
 671    5.2298065571575e-05
 672    0.00017245284634274
 673    -0.0015608513131684
 674    3.8868783331078e-05
 675    -4.7693832995044e-05
 676    9.673718285506e-05
 677    -0.0010924904752038
 678    -0.0021367003430986
 679    -3.7552073401835e-05
 680    3.3257149475972e-05
 681     6.84414133661e-06
 682    0.0013166948351359
 683    -0.0067339730125527
 684    0.00010449670564767
 685    0.00014523885475835
 686    -5.245679803265e-05
 687    0.0013676806907032
 688    -0.0046955592016504
 689    -0.0016478634377043
 690    0.0013026136788053
 691    0.0014734089051636
 692    -0.0025902017095965
 693    -0.0049046576153763
 694    0.0024606718973988
 695    -0.0023457401815124
 696    0.00011327790870884
 697    0.00011789438727851
 698    0.00025683051772403
 699    3.4061814297463e-05
 700    -9.0937841315194e-05
 701    0.00012663128761539
 702    -0.0001376188382967
 703    -0.0019130948870231
 704    0.0027787262065768
 705    -0.0066636901769392
 706    -0.0014546474460297
 707    -0.0010760125715387
 708    0.0035684325191038
 709    0.0012374692088847
 710    7.2341341336724e-06
 711    0.00041375845527035
 712    -0.00013651193902231
 713    7.5927381099595e-05
 714    -0.00011114994517875
 715     0.003930032784852
 716    -0.0039465828062979
 717    0.00051073142817681
 718    -0.00043664717249764
 719    -0.00033065603889029
 720    -0.0057750422109353
 721    0.0062018343647656
 722    4.9583968289798e-05
 723    0.00054254795282642
 724    -0.00010607712186623
 725    0.00059880388952385
 726    0.0023130811045743
 727    0.00021136738779469
 728    -0.00026842293850894
 729    -0.00031684795908274
 730    -0.0010628814914333
 731    -0.0010518681504665
 732    0.00034430337139412
 733    0.00030348560709334
 734    -0.00038122161461576
 735    -0.0012029541271537
 736    0.0093666434782258
 737    -0.00030535083492881
 738    0.00014157088864738
 739    0.00012420757168097
 740    -0.0002055613606903
 741    -0.00053377332958694
 742    0.00025592317260336
 743    -0.00011076457384392
 744    -0.00013750527570875
 Sym= A
 Ene=               0
 Spin= Alpha
 Occup=    0.00000
   1    -0.0069506853324112
   2    -0.00065552806405297
   3     0.012516523251569
   4      0.01275524970179
   5       0.1033874583189
   6      0.15987182676013
   7     0.039434584036105
   8      0.10939130738521
   9       0.1683645234538
  10     0.040929184421135
  11      -0.3241259558062
  12     -0.50115485949755
  13     -0.12416812437553
  14     -0.45792022644691
  15     -0.70298107610749
  16     -0.18062983207168
  17    -0.023128119611652
  18    -0.0050596997503706
  19    -0.012764881499955
  20    0.0082914601381342
  21    -0.014941314156338
  22    0.0083148481473025
  23    -0.00028132686808356
  24     0.001860721812277
  25    -0.0029736363828428
  26    -0.0013115200817323
  27    -0.031265549420032
  28    -0.062449533842503
  29      0.15080374302858
  30     0.087354204625722
  31     0.037384885007459
  32     -0.01201993303272
  33    -0.0010035885455651
  34     0.051090416899826
  35    -0.014941634621275
  36    -0.0016327822431916
  37      -0.1432103170993
  38      0.04643307054675
  39    0.0037213912202299
  40     -0.16042544686973
  41     0.036552466460398
  42    0.0075488597939619
  43    -0.0039969208153757
  44    0.00049164135296053
  45    -0.00015955574412654
  46    0.0075990099852349
  47    -0.0024247954607242
  48    -0.0045128284933011
  49    -0.0023907389679771
  50    0.00031877019158048
  51    0.0074291146911121
  52    -0.0074711594117888
  53    -0.052930861138285
  54     -0.10907487810534
  55      0.26486829365437
  56      0.15024365338807
  57    -0.002051561503647
  58     0.057376043475826
  59    0.0064230829598652
  60    -0.002254010722539
  61     0.079514502840294
  62    0.0078847552533896
  63    0.0088680328956495
  64     -0.22651998865799
  65    -0.023532313306802
  66    -1.5926896698285e-05
  67     -0.25040402133335
  68    -0.021921137331151
  69    -0.0068792427514999
  70    0.00070749857218118
  71    0.0035394037494614
  72    -0.011821884267122
  73    0.00048090880929001
  74    -0.0068312716491094
  75    -0.0016766921763891
  76    -0.00066961571991817
  77    -0.012376817924779
  78    -0.0030166384706986
  79    0.0035637186404864
  80    0.0059468926624467
  81    -0.0080010472797133
  82    -0.021496460381027
  83    -0.012745918381402
  84    -0.018466152681406
  85     0.042621812948042
  86    -0.016423939687983
  87    -0.024013870781113
  88     0.057857221031489
  89     0.049068436175487
  90     0.071822934997891
  91     -0.16566646961093
  92     0.043644862725128
  93     0.067227973131689
  94     -0.18288620406049
  95    0.00033804104312525
  96    -0.0025126033605118
  97    -0.0029925145614026
  98    0.00039681292110101
  99    -0.00021427175166648
 100    -0.00033060995422126
 101    -0.0022203228325604
 102    -0.0040088360670613
 103    0.00085055134660435
 104    -0.0019530059593127
 105     0.038366182734135
 106     0.075972164785891
 107     -0.18148820434989
 108      -0.1120514215944
 109     0.040342412405137
 110    -0.032360028652615
 111    -0.0099632860420086
 112     0.055242837760295
 113    -0.041449395504645
 114     -0.01235336660977
 115     -0.15512597150427
 116       0.1184529061846
 117     0.037373800187069
 118     -0.17124653094876
 119      0.11738813131271
 120     0.031959284092669
 121    0.0028119638716928
 122     0.003838186492164
 123    -0.0021941758176018
 124    -0.0053748845879358
 125    0.0087015168111536
 126    0.0074144881350005
 127    0.0016965975478393
 128    0.0024017834765726
 129    -0.0091476788554232
 130      0.01243944413031
 131     0.052406649633228
 132      0.10141203652962
 133     -0.23821063901216
 134     -0.15928532065604
 135    -0.028938725069231
 136     0.053911247479575
 137    -0.014464704829718
 138    -0.037684753618634
 139     0.074474487948621
 140    -0.017847917002477
 141      0.10612084095489
 142     -0.20455212857727
 143     0.053626565045577
 144      0.11186303883692
 145     -0.23970586317664
 146      0.04652061305247
 147    0.0035203441288876
 148    -0.0023591231574738
 149    0.0052914204877857
 150    0.0068509878979179
 151    0.0073924611831944
 152     0.010225796335706
 153    0.00096804234366696
 154    0.0018972663874007
 155      0.00990043424534
 156     0.011923479747977
 157    0.0055710221650259
 158    0.0051254617354446
 159    -0.0090856344366983
 160    -0.018043168985019
 161      -0.0165965720095
 162    -0.026553308953755
 163    -0.0032905663617966
 164    -0.020675875067096
 165    -0.032790858460852
 166    -0.0032999371470636
 167     0.060196273621781
 168     0.095310480574656
 169     0.015411120045857
 170     0.056181478497015
 171     0.089447100273557
 172    -0.0052451375165221
 173    0.0035043622209739
 174    0.0035870814245214
 175    0.0060153631158462
 176    0.00046801571055575
 177    -0.002938003188993
 178    0.00037255466270408
 179     0.006327401846334
 180    0.0095036661286776
 181    -0.00021322942927325
 182    -0.00036552043134262
 183    -0.0073354713109511
 184    -0.0015173037548738
 185     0.010657849855684
 186     0.011285786355422
 187    0.0037735611531834
 188     0.013952785839161
 189     0.066781931283537
 190     0.004033465776047
 191     0.014949371955202
 192     0.070616904331428
 193    -0.011205805816186
 194    -0.043689234398166
 195     -0.21438849417397
 196    -0.019110663462402
 197    -0.067390535318755
 198     -0.31769790925728
 199    -0.0029021269821588
 200    -0.002707446822157
 201    -0.0026532687741468
 202    -0.00070428730602941
 203    -0.0012561060453942
 204    0.0010815400095843
 205    1.3171819833066e-05
 206    0.00080377839160896
 207    -7.2434251095637e-05
 208    -0.00042111549849656
 209    -0.00088940831674905
 210    -5.2447156493906e-05
 211    0.0012610591957201
 212    -0.0021529814803453
 213    -0.00075255484837901
 214    -0.0021702181217356
 215    -0.0069925014230429
 216    -0.0010372625290162
 217    -0.0024857247292319
 218    -0.0089685053504152
 219     0.003535953041189
 220    0.0082731294364377
 221      0.02734778296502
 222    0.0028541189418608
 223    0.0051774990241164
 224     0.023322788028459
 225    0.00093780369556967
 226    -0.0015702457326733
 227    -2.5528938660852e-05
 228    -0.00034926273534268
 229    -0.00049740173965943
 230    0.00021817865512468
 231    -0.004504832926547
 232    -6.2508566432358e-05
 233    -2.0725242864868e-05
 234    -0.00084041690091139
 235    -0.0048642845090925
 236    -0.0080263635788161
 237     0.020855036849311
 238    0.0094445783960538
 239    -0.00017726983562114
 240     0.003137846755988
 241    -0.0068708379982715
 242    -0.0001090677451395
 243    0.0043539846796428
 244    -0.0088848416270706
 245    0.00086805794464676
 246     -0.01235010958734
 247     0.027149962299818
 248    -0.00069345295156758
 249    -0.013888315120028
 250     0.025036661442613
 251    0.00044572971534638
 252    0.0003974077543334
 253    -0.0019457877211924
 254    -0.0005471978735475
 255    -0.00013541571548533
 256    -0.00084186878544357
 257    -0.0015763684012932
 258    -0.0045996352383829
 259    -0.00050862861553144
 260    0.00012689226565201
 261    -0.024895869578469
 262    -0.052866187497744
 263       0.1259288864965
 264     0.078927562970242
 265    0.0020237977172543
 266    0.00073732417349342
 267     0.026968583050232
 268    0.0027994560599728
 269    0.0013071425810808
 270     0.037663200918989
 271    -0.0076011437517973
 272    -0.0031574443827973
 273     -0.10788965854201
 274    -0.0097922601581743
 275    -0.0045247042356556
 276     -0.11693734379318
 277    0.0047701380526463
 278    0.00038589595568741
 279    0.00024436048632842
 280    7.0390993142306e-05
 281    0.00077657706202913
 282    0.0094360167906858
 283    0.0016809068838438
 284    0.00056640856171341
 285    -0.00013087378970236
 286    -0.0020831201085077
 287    0.0024965517439979
 288    0.0059770370740546
 289     -0.01339529278889
 290    -0.011453011654844
 291    0.0032641208468381
 292    -0.0022224061793996
 293    -0.0095248902756864
 294    0.0045000378911945
 295    -0.0029745056774956
 296    -0.011910507801004
 297    -0.013631313730617
 298    0.0082208172609891
 299     0.035889832782439
 300    -0.014491869045719
 301     0.010005056268114
 302     0.033032568671538
 303    0.0011024399978828
 304    0.0021977525765325
 305    -0.00031011420877052
 306    -0.00086574978195024
 307    0.00083945244825749
 308    0.0007783850285553
 309    0.0049816497045733
 310    0.00019071234220038
 311    -0.00059730665327694
 312    0.0010590229289776
 313     0.007434948194302
 314     0.016442486244573
 315    -0.038481468459436
 316    -0.027725607605652
 317    -0.0023421670895883
 318    0.0089434977753431
 319    -0.0081137615553382
 320    -0.0031464620778099
 321     0.012394236831119
 322    -0.0097112199410332
 323    0.0085322462383503
 324    -0.036340953962716
 325     0.030012401591256
 326     0.012139357334785
 327    -0.039897546086262
 328     0.025198694714157
 329    0.0017675718300173
 330    1.789740039269e-05
 331    0.0011108389666504
 332    0.0020489023324832
 333    0.00089311674388102
 334    0.0023506901299789
 335    -0.0015403760262146
 336    0.0044396513798709
 337     0.001775989451998
 338    0.0009828016171326
 339    0.0033382921276281
 340    -0.0061148795894162
 341    -0.056210087076227
 342    -0.0050993998932801
 343    -0.0022495715446951
 344    0.0043948888001858
 345    -0.0085336982655315
 346    -0.020818295008758
 347      0.01348671495096
 348    -0.00022201629065207
 349    8.0897313801108e-05
 350    -0.00054455200892005
 351    -0.00022902212787219
 352    0.00065681767245349
 353    -0.0029186671182454
 354    -0.012732218189459
 355     0.014743024019853
 356    0.0036297364554148
 357    0.0034228486749028
 358    -0.0025420621137879
 359    -0.0076207859234728
 360    0.0031627689576921
 361    -0.016727689557392
 362    0.00030338241783589
 363    -0.00016920498010522
 364    0.00059174255258302
 365    -1.6071196537961e-05
 366    0.00016243961254787
 367    -0.0045023153508064
 368    0.0052578048037354
 369    0.0003018840300445
 370    -0.0005553435550043
 371    0.00016393556777463
 372    -0.0048790258963897
 373      0.01483835018486
 374    -0.0016587817078863
 375    4.6620361933631e-05
 376    -0.0011344635343895
 377    -0.021486136349886
 378    -0.010795177565683
 379    -0.00066210313205157
 380    0.00028613746675437
 381    0.00067514023850611
 382    -0.0025485224419164
 383    -0.0053161668949785
 384    -0.00066491643796914
 385    -0.00058167478848225
 386    0.00023017026469103
 387    -0.011957265569243
 388     0.028895424370855
 389    -0.0010344230281556
 390    -0.0004443102099491
 391     0.000896760758019
 392    -0.0030783881788689
 393     0.030634040130335
 394      0.00106355178706
 395    0.0002102888167657
 396    0.00062542644079768
 397    0.0036031988666133
 398    -0.0083403827260066
 399    -0.025082122359002
 400    -0.0016101372277246
 401    0.0061509641651982
 402     0.010302137561981
 403    0.0019520996396172
 404    0.0072294091254094
 405      0.01418278841081
 406    0.00023596590603814
 407    0.00023316161227126
 408    5.1821756203374e-05
 409    -0.00010080498711714
 410    0.00012055247403363
 411    0.0022021554408706
 412    0.0045024099451592
 413     0.013770546599901
 414    -0.0021361784968917
 415    -0.0024793754844607
 416    0.0051358864368562
 417    -0.001467894389684
 418    0.0039420769158459
 419     -0.01252687300558
 420    0.00015699569137909
 421    -0.00057337524283672
 422    -0.00091935104219057
 423    2.8155482872121e-05
 424    -0.00040137483877798
 425     0.004290611549203
 426    -0.00019153974255657
 427    0.00034286927074317
 428    7.0694494755661e-05
 429    -0.0015650606319256
 430    0.0020350253553748
 431    -0.016134748080942
 432    0.00013566007651033
 433    -8.2460568743118e-05
 434    -0.00035571218346688
 435    0.00031416418127275
 436    -0.0023455193283546
 437    -0.0002488061960678
 438    -0.00052334563610247
 439    -0.00020171216700659
 440    -0.0036366364752563
 441     0.020502746014211
 442    0.00018368361815504
 443    -0.00060791428678967
 444    -0.00072913902126925
 445    0.0016235309110357
 446    0.0050740108755098
 447    0.00021811799341924
 448    1.9144289165182e-05
 449    0.00019799076823108
 450    0.00078312574533369
 451    0.0062011531193927
 452    -0.00039208843523889
 453    0.00036353384283143
 454    -8.8158370158206e-05
 455    -0.00031502584421415
 456    0.0016603707491215
 457    0.0063094345627577
 458    0.00033248128497896
 459    -0.00031087857179833
 460    -0.00013840756461646
 461    3.0755561095286e-05
 462    4.1156539381508e-05
 463    0.0003393917528076
 464    -5.4803736285961e-05
 465    -2.9518167319133e-06
 466    -6.4183943463419e-06
 467    -1.0361086335201e-05
 468    -3.5996284987658e-05
 469    0.0012585684042851
 470    0.0034104342953929
 471    0.0065563767130743
 472    -0.0030378977456761
 473    0.0024150561070925
 474    -0.0012237847394702
 475    0.0057981776909625
 476    -0.0060854689662127
 477    -0.00067028173270554
 478    2.1213418114988e-05
 479    0.00014589851420556
 480    -0.00025742168348387
 481    7.4450889336061e-05
 482    1.5438910297484e-05
 483    0.0018461353443203
 484    0.00055481902467932
 485    -9.5236038382468e-05
 486    -0.00045524515675998
 487    -0.00023223765963002
 488    0.0027821140273737
 489    -0.0015888863289751
 490    0.00069243742528116
 491    -0.00015085117678469
 492    -0.0003625854623183
 493     0.004661316892873
 494    -0.0088347531189496
 495    0.00065942893265586
 496    -0.00063430178800385
 497    -0.00018448860253393
 498    0.00028967370854887
 499    -0.00074495354397912
 500    6.3451264019843e-05
 501    -6.9155536230005e-05
 502    -0.00013185650521341
 503    0.0004530377679836
 504    -0.0028003377792911
 505    0.00021159219107133
 506    6.5526083580145e-05
 507    4.6332329589905e-05
 508    0.00018128571842659
 509    -0.0020809054884754
 510    -3.5425837842658e-05
 511    -0.00017436408647535
 512    6.8385806455891e-05
 513    0.0014717916924651
 514    -0.0037382658447165
 515    -0.010878651296003
 516    0.0031385663636043
 517     0.001770352214926
 518    0.00083219151744484
 519    0.00084485420550518
 520       0.0073512920953
 521    -0.0030205097045218
 522     0.000206386557276
 523    0.00025482574191983
 524    5.8702897628423e-05
 525    -3.7451489188694e-05
 526    -0.00012714424052493
 527    -0.0011119384381296
 528    -0.0032540432246539
 529    -0.0050837152560652
 530    -0.0055423790698789
 531    -0.0035305382731762
 532    -0.0032312187916359
 533    0.0045882095329096
 534    0.0037812248786117
 535     0.011221897334311
 536    -6.7860225190471e-05
 537    -2.1898691565047e-05
 538    -3.2187548499905e-05
 539    -0.00013095281112842
 540    0.00025186990747037
 541    -0.0012017536213128
 542     0.019340252445057
 543    0.00026899639096952
 544    -0.00026140494526578
 545    5.5680073321561e-05
 546    -0.0076988254948161
 547    -0.0036003690742388
 548    0.00050254412990217
 549    -0.00040725100602058
 550    5.9150882228932e-05
 551    0.0037291273725337
 552    -0.0096731664938161
 553    -0.00011313149048398
 554    1.7138400507201e-05
 555    8.7353675766189e-05
 556    -0.0036463745527673
 557     0.013441332875082
 558    2.0504408163359e-05
 559    0.00038019150211207
 560    -0.00034237660546083
 561    0.0014907637355919
 562    0.0049556239392312
 563    -4.0952049592818e-05
 564    -4.9434080774269e-05
 565    -6.5447968589612e-05
 566    -0.00028305372002974
 567    0.00044376584046565
 568    6.6743568665887e-06
 569    -0.0004467007700424
 570    -2.8128516790217e-05
 571    -0.00085872344849921
 572    0.0014595545051728
 573     0.010943169345786
 574    -0.0019073456702401
 575    0.0035808942074255
 576    0.0017796557631689
 577    -0.0037677933353549
 578    0.0058754738592187
 579    -0.0017593559746872
 580    -2.3609407789331e-05
 581    -0.00024458696445928
 582    0.00015128521438051
 583    2.9887100071435e-05
 584    -0.00011914151469672
 585    0.00051227347067621
 586    0.0023311468343314
 587    -0.0043869473156187
 588    0.0010841985123083
 589    -0.001333402478997
 590    0.00021655155815126
 591    0.0025171310977155
 592    0.0012752256765526
 593    0.0026435172950606
 594    6.8622499025776e-05
 595    0.00013442668891279
 596    8.1823752811993e-05
 597    -9.8033427734042e-06
 598    3.996018226158e-05
 599    0.0045094213875832
 600    0.0050503517506614
 601    -0.00024678587675651
 602    0.00013011706303773
 603    0.0003748615054683
 604    0.00037442579725215
 605    -0.0050625287889157
 606    0.00032693673847013
 607    0.00025124403281209
 608    0.00020014692262581
 609    0.00040848811088324
 610    0.00087608402212354
 611    -0.00020959475436481
 612    8.6085723896055e-06
 613    -8.2528154992345e-05
 614    0.0039458019498614
 615    -0.0090278903085187
 616    -0.00011613549404408
 617    0.00012989442444638
 618    -9.0335671004926e-05
 619    0.00058887984005571
 620    0.0015470122661719
 621    -0.00013280032690749
 622    0.0002165486212864
 623    -9.398691223673e-05
 624    -0.00028027575712418
 625    -0.0031944261873378
 626    -0.00012285437191037
 627    -0.00019076354745217
 628    4.999423962938e-05
 629    0.00079223451485995
 630    -0.0015893567147371
 631    0.00038803283231782
 632    0.0032376521827103
 633    -0.0012405180321738
 634    0.00097914841955747
 635    0.0070898202615141
 636    6.8596888269456e-05
 637    0.0013985104665508
 638    -0.00037348270430495
 639    0.00010458927042849
 640    -0.00044419373665903
 641    -0.00010952605215143
 642    0.00033338779417238
 643    0.0018250295843516
 644    0.0082228958196472
 645    -0.012268202599955
 646    0.0019756984158989
 647    -0.0023179785888395
 648    -0.0038700136154698
 649    0.0038142874871214
 650     0.018320711533015
 651    -0.0065793611383324
 652    -0.000355187484779
 653    0.0001242216207958
 654    -5.593391929499e-05
 655    -4.6973420759152e-05
 656    -0.00013682500252958
 657     0.021313833136622
 658     0.034720747087073
 659    -0.00063212721107448
 660    0.00051867274013554
 661    0.00031325315941588
 662    0.0054315569120725
 663    -0.011024533077715
 664    0.00027845206769286
 665    8.7919427559766e-05
 666    -0.00026546005193419
 667    0.0021421551528521
 668    -0.013551006059071
 669    -0.00016446681474232
 670    0.00032722186810318
 671    -3.5514251252325e-05
 672    0.0030565173269631
 673    -0.0073695738996267
 674    5.5504520924892e-05
 675    -0.00022233889507276
 676    -0.00025346717600216
 677    -0.00084016608849892
 678     0.001639661951644
 679    -6.3970993990524e-05
 680    0.00022140859257845
 681    0.00021764408634253
 682    0.00067887746107087
 683     0.001498323862483
 684    -0.00035767320210163
 685    -0.00038744961973302
 686    -1.8736954334963e-05
 687    -0.002276718753447
 688    0.0065813563591229
 689     0.012193307792377
 690    -0.00090182056196473
 691    -0.0023982595668483
 692    -0.0048688531781178
 693    0.0023395866262047
 694    -0.0072152194341372
 695    0.0038510813872493
 696    0.00051671124997031
 697    7.3705223347776e-05
 698    -4.3366823664676e-05
 699    0.00023254857393039
 700    -0.00012270162585821
 701    0.0013896519396216
 702    0.0036744877205624
 703    0.0038131252284916
 704    0.0036234626486164
 705    -0.0033369916001389
 706    0.0023148530902895
 707    -0.0084553814448019
 708    0.0097914111923448
 709    -0.005686448262393
 710    -0.00023627467146541
 711    0.00012597051735265
 712    -0.0002320379228119
 713    6.5549420136158e-05
 714    -0.00050568844694859
 715    0.0012708842038318
 716    -0.019015482924462
 717    -0.00028115754838637
 718    0.00064440758185166
 719    0.00085144829970927
 720    0.0020814197597013
 721    0.0025052870937601
 722    0.00032097749051893
 723    0.00055494847884388
 724     -0.00149569079476
 725    0.0013763315115719
 726    0.0042196932173691
 727    -0.00031943349954203
 728    -0.00037608074427643
 729    -0.00052138815696263
 730     0.011921509757606
 731    -0.0084173694888857
 732    -0.001004362264445
 733    -0.00077003308043373
 734    0.00051934889596878
 735    0.0012662846151841
 736    -0.011842791505595
 737    0.00069353861135541
 738    0.00048947178090097
 739    -8.0902530588096e-05
 740    0.0021196919246937
 741    -0.00074275703566222
 742    -0.00010907744803675
 743    -0.0003616222213854
 744    -0.00034780079540378
 Sym= A
 Ene=               0
 Spin= Alpha
 Occup=    0.00000
   1    -0.010813117172511
   2    -0.0014043876688698
   3     0.014031545243108
   4      0.02710796283952
   5      0.13939842334383
   6     -0.12638027625732
   7     0.069278155292311
   8      0.14678769062449
   9     -0.13353284663898
  10     0.073265114484287
  11     -0.43638911821467
  12      0.39586324008325
  13     -0.21959572359381
  14     -0.64031293552775
  15      0.58164194097381
  16     -0.31558884266024
  17    -0.0048473113169949
  18    -0.010025566005302
  19    0.0029748983468583
  20     0.033403862240854
  21    0.0059161315957324
  22    -0.0012046635635789
  23    0.00080063088175433
  24    -0.0022189928520263
  25    -0.015154400091838
  26    -7.7962184770662e-05
  27    -0.040530517976348
  28    -0.078617101190716
  29      0.18712104900977
  30      0.11838150102389
  31     0.043519869893798
  32     0.016167365287869
  33    -0.0032675002271125
  34     0.060651194461519
  35     0.019272233632672
  36    -0.0043614714430382
  37     -0.16653936172714
  38    -0.061070749436251
  39     0.012978316571573
  40     -0.20073787613954
  41    -0.048527876017166
  42     0.010765856134626
  43    -0.0052443006927827
  44    7.2138620000672e-05
  45    0.0010019235208972
  46    0.0074822752486636
  47    0.0051928400760693
  48    -0.0046532706821971
  49    -0.0037807066151781
  50    -0.0017046774970865
  51     0.010039771640607
  52    0.0050003497923164
  53     0.038219411951486
  54     0.072031876301779
  55     -0.16998892761356
  56     -0.11512667377565
  57    -0.023043154135995
  58    -0.034382374018533
  59    -0.012951483406509
  60    -0.028975337039549
  61    -0.048225806671779
  62    -0.016178919385903
  63     0.085740279137841
  64      0.13128790922447
  65     0.050306125668977
  66      0.08566186434609
  67      0.17014419174846
  68     0.043648771218068
  69    0.0034279859672149
  70    -0.0026292983355289
  71    -0.0042061479902403
  72    0.0054955881440265
  73    -0.0071324243633997
  74    0.0044431317790172
  75    0.0018419847295063
  76    -0.0053122833060252
  77    0.0066197740589204
  78    -0.0089941320356703
  79    -0.0077506585422903
  80    -0.016465300604905
  81     0.042995626602485
  82     0.012371810633185
  83    -0.015726780847627
  84     0.013694286875746
  85     0.039658417042155
  86     -0.02044045054839
  87     0.017033117627249
  88     0.053831140078246
  89      0.05934969621687
  90    -0.053547917089384
  91     -0.15275569184574
  92     0.063805998949937
  93    -0.042873785276666
  94     -0.17421546785687
  95     0.001679843519313
  96    -0.0038986865776324
  97    0.0051112202019238
  98    -0.00045767839873285
  99    -0.00036335368022937
 100    0.0015266139858629
 101    -0.0043301708749546
 102    0.0088689516295217
 103    -0.0015618786665543
 104    -0.00019406139585807
 105     0.055735633370497
 106       0.1141340142432
 107     -0.27233496950563
 108     -0.17301475976655
 109      0.06076615531408
 110     0.018488341639781
 111    -0.018548541608382
 112      0.08404904697421
 113     0.022970565367455
 114    -0.022195658186675
 115     -0.23789595960835
 116    -0.067059749914202
 117     0.069490042731263
 118     -0.26406104909211
 119    -0.064617647620175
 120      0.05259256872404
 121    0.0045295883450903
 122    0.0063562346367209
 123    0.00094078413870768
 124    -0.010097743471832
 125    -0.0049581866985807
 126    0.0099338972573384
 127    0.0036663816182125
 128    -0.0021522788674806
 129    -0.016710056625803
 130    -0.0066019292454236
 131    -0.050503113699364
 132     -0.10552183172869
 133      0.25650549184087
 134      0.14895756405059
 135    -0.0086294341661302
 136    -0.060293562562814
 137    -0.0014656026084657
 138    -0.0091653681150204
 139    -0.082834347749872
 140    -0.0017045940965681
 141     0.031610814452215
 142      0.23651177161196
 143    0.0045521329844405
 144     0.013700256913959
 145      0.25141962265578
 146    0.0043607847203006
 147    -0.0057410896746976
 148    -0.0016368055599865
 149    -0.0021557724349183
 150    -0.010745406842309
 151    0.0016414868017365
 152    -0.0086951286252458
 153    0.00058244080667261
 154    0.0059299534049119
 155    -0.016090079124366
 156    0.0028125180225099
 157     0.024580394919799
 158     0.046628216774789
 159     -0.11212547200337
 160    -0.068891031581731
 161    -0.030155135861309
 162     0.016029651470274
 163     0.025390015482475
 164    -0.037409821816268
 165     0.019370514451189
 166     0.035078968777763
 167      0.10942598105114
 168    -0.057347128819434
 169    -0.095869131374604
 170      0.10292350236806
 171     -0.05085052362561
 172     -0.11289926570769
 173    -0.003256317835467
 174     0.007452410127167
 175    -0.0032603724901161
 176    -0.0026258841006967
 177    -0.00029150916766185
 178    -0.0076223377384122
 179     0.010981576997605
 180    -0.0066525762789855
 181    -0.0014051009366785
 182    -3.7629894879035e-05
 183    -0.0093386409508158
 184    -0.002087329036672
 185     0.014993920155251
 186     0.013933369062761
 187    0.0063612115085781
 188    -0.0042771608220961
 189     0.043718247340835
 190    0.0068598962774823
 191    -0.0045993979921003
 192     0.046473799042574
 193     -0.01911040328612
 194     0.012301618229564
 195     -0.14166405258301
 196    -0.034303993812777
 197     0.023480904959795
 198     -0.21801690720021
 199    0.00096169764078804
 200    -0.001233316565948
 201    -0.0050331237313366
 202    0.00021189521156566
 203    -7.5323411692422e-05
 204    0.00016531586124667
 205    0.00063750394478498
 206    1.7447625216469e-05
 207    0.0004833315065193
 208    -0.00045945138278421
 209    -0.0016688763721412
 210    -0.0021746753721949
 211    0.0054352137766986
 212    0.0026747490321834
 213    0.00044752961475504
 214    0.00041252079777906
 215    -0.0044426771256196
 216    0.00052171993073877
 217    0.00074868686579663
 218    -0.0057691670341233
 219    -0.0013532523800563
 220    -0.001564966459611
 221     0.017571291616388
 222    -0.0016867470084525
 223    -0.0028692470874602
 224     0.014836605281768
 225    0.0007393397755256
 226    -0.00086346407733361
 227    -2.8956053790412e-05
 228    -5.9401275931984e-05
 229    1.2939836918181e-06
 230    -0.00026059307702623
 231    -0.0035295133763701
 232    -0.00016500449661757
 233    -0.00022478319212474
 234    0.00050152765802214
 235    0.00059170885323636
 236    0.0027883459188381
 237    -0.0071592105232134
 238    -0.0046455858949483
 239    -0.00093885127404098
 240    -0.001149514326103
 241    -0.0033943518274784
 242    -0.0011438597003663
 243    -0.0015959014536812
 244    -0.0040802982316318
 245    0.0038213040657375
 246    0.0061413072142952
 247     0.015075389441403
 248    0.0024231927980929
 249    0.0046872491180346
 250    0.0070366888615049
 251    0.0010404875434528
 252    4.0841273973185e-05
 253    -0.00042882078009467
 254    0.00060137778934803
 255    -0.00030183092590341
 256    -4.3419852213338e-05
 257    -0.00016813058409072
 258    -0.003212200016998
 259    0.00013981518664357
 260    -0.0006604684584453
 261    -0.016130857267677
 262    -0.034868374261156
 263      0.08245285670941
 264     0.053285717815772
 265    0.00071956138609272
 266    0.0028029826972166
 267     0.017026815976278
 268    0.0010058650402719
 269    0.0038346171437943
 270     0.023918751444695
 271    -0.0028253496186026
 272     -0.01038407922213
 273    -0.069024871757484
 274    -0.0033556315018392
 275    -0.012663535282448
 276    -0.074532622723679
 277    0.0026846298905229
 278    4.2440438934616e-05
 279    0.00074101182640525
 280    -9.9395240874016e-06
 281    0.00049195330527554
 282     0.006828596774416
 283    0.00081420469820287
 284    0.0015523447484566
 285    -0.00028559019871335
 286    -0.0012014906033033
 287    0.0029329373988601
 288    0.0071233987358097
 289    -0.014779269870683
 290    -0.017047846131638
 291    0.0039201610581407
 292    0.00026333036979622
 293    -0.0057517581155896
 294    0.0052878813237627
 295    0.0003511977538981
 296    -0.007251586134321
 297    -0.016066580465295
 298    -0.0011807932692293
 299     0.021999926402676
 300    -0.018164819668134
 301    -0.00022468158215876
 302     0.020678285041227
 303    0.0010917837419309
 304    0.0010750529473705
 305    -0.00029229978578537
 306    -0.0010920120950491
 307    2.3666403544311e-05
 308    0.00049828264701502
 309    0.0036332776000245
 310    -6.2266560161955e-05
 311    -0.00080732523214284
 312    -0.00012815037387083
 313    -0.00073480790577975
 314    1.5009887714203e-05
 315    -0.00027418216942464
 316    0.00059472740233084
 317    -0.0010070201039117
 318     0.001731752866769
 319    -0.0047078537515496
 320    -0.0014555350210396
 321    0.0022455780203263
 322    -0.0066727722245478
 323    0.0038849232078503
 324    -0.0066389790195238
 325     0.017886034765586
 326    0.0046393468161059
 327    -0.0067475815670405
 328     0.022526942671645
 329    0.0013319303124711
 330    -0.00024198917423679
 331    0.0012249159333049
 332    0.00056138157514079
 333    0.00038132607061761
 334    1.7415429988797e-05
 335    -0.00015309682146869
 336    0.0035861512020083
 337    0.00044656175973572
 338    0.00064591776241487
 339    0.00027699055313016
 340    -0.0013946535190805
 341    -0.0014646784089752
 342     0.010906345027356
 343    -0.0079875505034958
 344    -0.00084108687691856
 345     0.016822652926097
 346    -0.0058327661474553
 347     -0.00506313398817
 348    -6.4294263223288e-05
 349    -0.00061344696461213
 350    0.00016139949377827
 351    6.4467714282768e-05
 352    4.7516923817151e-05
 353    -6.6121990900959e-05
 354    0.0010132220322859
 355    -0.011065461411084
 356    -0.0023748273321111
 357    0.0015098047864616
 358    0.0011711390355345
 359    -0.0014166182471286
 360    -0.010014909498248
 361    -0.0011643181614876
 362    6.3810963624716e-05
 363    1.3786680423324e-05
 364    9.0408345471406e-05
 365    -8.7859892958486e-05
 366    -0.00030990988270631
 367    -0.00080211905816356
 368    0.0082355392094752
 369    0.00031025768460572
 370    -9.5860636269138e-05
 371    -0.00058485297546671
 372    -0.00044159721808253
 373    -0.0098010294388392
 374    -0.00011531935496717
 375    -0.00016265990731044
 376    0.00027767693681278
 377    0.0025555704776749
 378     0.018466628983768
 379    5.3344180596972e-05
 380    -0.0016198831196547
 381    -0.00041840406119335
 382    0.0027356907025823
 383     0.004410399251457
 384    0.0003980634770345
 385    7.9530321697118e-05
 386    -8.6315972464335e-06
 387    0.0059366641793614
 388    -0.019062643414049
 389    -7.7513426802127e-05
 390    5.7777943918904e-05
 391    -8.1086532722375e-05
 392    -0.0062823727619849
 393     0.013137272242521
 394    -8.6735995889645e-05
 395    0.00021721805516533
 396    -0.00014917504866072
 397    0.0029686830787218
 398    -0.0060479255300836
 399     -0.02647357967658
 400    0.00061674214795861
 401    0.0069724140490145
 402    0.0080757485152897
 403    0.00052612527785296
 404    0.0073684240298235
 405    0.0076310118361102
 406    -0.00053208711509233
 407    -0.00017941927275869
 408    -0.00026293103781483
 409    0.00021932378119915
 410    -9.563271799261e-05
 411    -0.00078615788791029
 412    -0.0028340423958465
 413    0.0019486074725485
 414    0.0016993125358845
 415    0.0023732095955214
 416    -0.0028525744145863
 417    0.0027655057615627
 418    -0.0040124432995896
 419    0.0096195554726393
 420    -9.5828533289712e-05
 421    -5.3983913533582e-05
 422    0.00061181280512914
 423    0.0001987559957746
 424    0.00020723087910526
 425    -0.0074969806466668
 426    -0.008062191456985
 427    -0.00032100836764687
 428    0.00064481634103894
 429    -7.0459409343954e-05
 430    -0.0038635790484529
 431     0.013958390168219
 432    -0.0004455372584042
 433    -0.00031000172097333
 434    0.00059045997868296
 435    -0.0046323470065703
 436    -0.0034889874336757
 437    -3.6186870117764e-05
 438    0.00065284546479276
 439    0.00060775163020847
 440    -0.0095631895265421
 441     0.024222891760842
 442    -0.00070725483384048
 443    -0.00047473784346217
 444    0.00014440394887066
 445    0.00046096467860103
 446    0.0047012195334727
 447    -5.2492304174369e-05
 448    0.00016567906014376
 449    0.00035818706843401
 450    -0.0021050960903273
 451    0.0085789108494092
 452    2.8940118710796e-05
 453    5.5252945468118e-05
 454    -1.8470998120227e-05
 455    -9.0314349469244e-05
 456    0.00052234545665968
 457    0.0024785769644453
 458    4.612029528252e-05
 459    3.3052438026936e-05
 460    0.00011932125203364
 461    -2.9714752246011e-05
 462    0.00016843449294266
 463    0.00030122086638176
 464    -2.8893026142138e-05
 465    1.6127259014552e-07
 466    -3.3486610690291e-05
 467    1.9695883190983e-05
 468    -1.8700358218391e-05
 469    0.00080154640942149
 470    0.0020632829903868
 471    0.0041465782329655
 472    -0.0021334511192232
 473     0.001462837124508
 474    -0.0010548843505311
 475    0.0030322200670024
 476    -0.0027023083099357
 477    0.00056297669027596
 478    3.4555438741135e-06
 479    9.8456381030951e-05
 480    -0.00011436077434658
 481    2.5047492411318e-06
 482    -4.2080338742433e-05
 483    0.0007019494582102
 484    0.00014985938176344
 485    -3.3083196738967e-05
 486    -0.00025306720942564
 487    -9.9951999328621e-05
 488    0.00074250093374209
 489    -0.00049213973499429
 490    0.00026718269263562
 491    -5.759165036784e-05
 492    -1.8669392591209e-06
 493    0.0026287584265455
 494    -0.0058471256914966
 495    0.00028338718190503
 496    -0.00030673150805549
 497    -0.00017817816172087
 498    0.00010895894431327
 499    0.00010253414737561
 500    4.5264034364847e-05
 501    -4.8758101533758e-05
 502    -3.4641873163476e-05
 503    0.00018797954034457
 504    -0.0014376625604931
 505    8.3002379376013e-05
 506    3.4647689823859e-05
 507    3.503659769933e-05
 508    0.00018915810237059
 509    -0.00090119942391488
 510    -1.996488095923e-05
 511    -6.3540860152844e-05
 512    4.8112196835511e-05
 513    -0.001744998751117
 514    0.0059867907426709
 515     0.018572640466921
 516    -0.0026052230739044
 517    -6.5895192108987e-05
 518    -0.0031678252693948
 519    0.0072517210335479
 520    -0.0065532610187433
 521    0.0075298171253214
 522    0.00035424179746037
 523    8.3474529631882e-05
 524    5.9176990774602e-05
 525    0.00030562399365482
 526    0.00010479493475909
 527     0.002719071340391
 528     0.010212058766863
 529    -0.00068957818060725
 530    0.0016682909744988
 531    -0.0031110716197909
 532    0.0041909317681883
 533    0.0066829007232158
 534    0.0073559914603833
 535    0.0068397683918121
 536    0.00011630275230749
 537    0.00099722135103563
 538    -0.0002150513123938
 539    3.1297157825932e-05
 540    -3.5969536656364e-05
 541     0.026045151812389
 542     0.023078482832848
 543    -0.0015805655112646
 544     0.002208155041081
 545    -0.0016889301139212
 546    -0.00054095699682393
 547    -0.0097889900257858
 548    0.00042016719081766
 549    -0.00096837867457763
 550    8.3442206163197e-05
 551    0.0026302236652964
 552    -0.013954008879979
 553    -2.7739616695826e-05
 554    0.00022022565106237
 555    -0.00030108522589037
 556    0.0042423732807953
 557    -0.010486359718595
 558    -0.00045214960725347
 559    9.2018678161956e-05
 560    -0.00049564939696222
 561    -0.0051687239799101
 562    -0.0087075971496018
 563    0.00019983186887678
 564    0.00072335727041938
 565    0.00052121775181514
 566    0.0055840049879358
 567    -0.012626916706635
 568    2.2052834231966e-05
 569    -0.00017026670151064
 570    -0.00094089190835186
 571    -0.00077712833714587
 572    0.0011192386003734
 573      0.01165424215124
 574    -0.0016867763069731
 575     0.002106874920667
 576    0.00042954714720097
 577    -0.003897657564632
 578    0.0030150722175154
 579    -0.0028459297418057
 580    4.2182255369323e-05
 581    -0.00011030391373777
 582    0.00016263158243954
 583    -2.5803479510933e-06
 584    -7.9349630834067e-05
 585    0.00060253895969678
 586    0.0027676421113793
 587    -0.0051518080240502
 588    0.0011386090749176
 589    -0.0011586619649847
 590    0.00066108421613102
 591    0.0020807338494175
 592    0.00057646222288141
 593    0.0030727058025294
 594    4.5565517862119e-05
 595    0.00010775949908673
 596    4.0466656684915e-05
 597    -1.6538365170031e-05
 598    9.7930804591883e-05
 599    0.0050434232273139
 600    0.0065954155940288
 601    -0.00023042251786756
 602    -8.3600859287247e-06
 603    0.00032707149629576
 604    0.00036972321834449
 605    -0.0039955997757976
 606    0.00027555721989511
 607    0.00021524777802417
 608    0.00010966935754833
 609    0.00060570838068328
 610    2.7455422420945e-05
 611    -0.00019866210354198
 612    9.0805530081639e-05
 613    -6.6318415464277e-05
 614    0.0031776919863686
 615    -0.0070787045570305
 616    -9.3111411527334e-05
 617    0.00015360840410381
 618    -8.6080412557551e-05
 619    0.0001798277084011
 620    0.0011594842192606
 621    -6.542378833481e-05
 622    0.00018529323389115
 623    -8.2834343262188e-05
 624    0.00067885755304044
 625    -0.0064725883279277
 626    -0.00012451166848831
 627    -0.00029791565435021
 628    3.5148133229969e-05
 629    0.0004069275247608
 630    -0.001129867266823
 631    -0.0013762156199532
 632    0.0025359352185206
 633    0.0011208632037681
 634    0.0034843391752558
 635    0.0054264379535862
 636    -0.0045951625257335
 637     0.006573007994236
 638    -3.1942668634547e-05
 639    -0.00020408358746884
 640    -2.6191293953504e-05
 641    -0.00025013642503637
 642    -2.810305227282e-08
 643    -0.00065941496733408
 644    -0.0014857212109968
 645    -0.0025833909987241
 646    -0.0047314797939534
 647    0.0025032561317858
 648    -0.00048191895856885
 649    0.0030240617676452
 650    -0.0024074592989878
 651    0.0018973211197849
 652    0.0003055246272931
 653    -0.00026545831274481
 654    0.00017293823219242
 655    6.3981032064185e-05
 656    0.00027571044711991
 657    -0.0015571254582245
 658     -0.00474744162122
 659    0.00038091494580258
 660    -0.00042184197684969
 661    -4.9745981807542e-05
 662    0.0012678147867083
 663    -0.0064390397085478
 664    -0.00011937762609254
 665    0.00044212158805652
 666    1.8978049164786e-05
 667    -0.0041798080625407
 668     0.010783336666226
 669    2.2005386210483e-05
 670    -0.00021502480154256
 671    0.00041266673551091
 672    -0.00075682273185219
 673    -0.0085193993005261
 674    0.00040806870894682
 675    -0.00036222695333437
 676    -0.0003287867745852
 677    0.0015155388651873
 678    0.0033972382628513
 679    -0.0001033943048898
 680    6.0724246261987e-05
 681    2.3172016167623e-05
 682    -0.002493161653182
 683    0.0090339974519983
 684    -0.00020629016989601
 685    -3.4720874536962e-05
 686    0.00029091114035743
 687    -0.00081525450348695
 688    0.0016450476631394
 689    0.0063510388842966
 690    0.0024170397388292
 691    -0.004152785725252
 692    -0.0003742072730058
 693    -0.00040190713922665
 694    0.0008484799734827
 695    0.0046720462318169
 696    -1.1182912048161e-05
 697    0.00030341756072772
 698    -0.00023377382131346
 699    2.6847726607532e-05
 700    -0.00018735956434572
 701    -0.0012100421455127
 702    -0.0023247313436449
 703    -0.011045863957647
 704    -0.0013853792351651
 705    0.0033923100844337
 706    -0.0026442642252671
 707    0.00043736544841462
 708    -0.010218788791607
 709    -5.5345420842106e-05
 710    -4.5622495132432e-05
 711    -3.2455815937409e-06
 712    4.243729047292e-05
 713    -0.00018091453408706
 714    0.00012098239749185
 715    -0.00053828705227477
 716     0.014189664672821
 717    0.00017269954718424
 718    -4.6289202253258e-05
 719    3.0033995587422e-05
 720    -0.0016938997432187
 721    -0.0073397911667896
 722    0.00016791328406829
 723    -0.00016720332874056
 724    -0.00057956907951687
 725    0.0036107391897678
 726    0.0025302699502741
 727    -0.00027949213475725
 728    6.222514577076e-05
 729    -0.00045591091236217
 730    0.0024699869472941
 731    -4.2472876096242e-06
 732    -0.0007450736608095
 733    0.00044507528994451
 734    0.00057496342988627
 735    0.0050810705980035
 736    -0.0047188302981116
 737    0.00011886638025756
 738    0.00036748506928256
 739    0.0001997399130458
 740    -0.0021089834119946
 741    -0.0016870338770854
 742    0.00027734235771189
 743    -0.00016577098870412
 744    -0.00039613628246404
 Sym= A
 Ene=               0
 Spin= Alpha
 Occup=    0.00000
   1     0.014487245956952
   2    0.0034079893051886
   3    -0.010223792323657
   4    -0.076824821468257
   5     -0.10548911744857
   6    -0.0041121384091647
   7      0.15859778780828
   8     -0.11168510618351
   9    -0.0049421160753743
  10      0.16784254298685
  11       0.3343729502724
  12     0.015734560607146
  13     -0.50332300595326
  14       0.4826552810231
  15     0.011803499086252
  16     -0.74277720693535
  17     0.015372771497684
  18    -0.0082529361414558
  19    -0.012855764178894
  20    -0.016061416939057
  21    0.0048268051620124
  22    -0.013857146912582
  23    -0.002902569760194
  24    0.00074568863574687
  25    0.0074537130683575
  26    -0.00048415198438734
  27     0.030801537833446
  28     0.058833123197103
  29     -0.14558356307804
  30    -0.073375764758588
  31    -0.031237316853072
  32    -0.0028229920322564
  33    -0.016746542221258
  34     -0.04336309036581
  35    -0.0032265006070373
  36    -0.020149122420519
  37      0.12043312540572
  38    0.0099015182760825
  39     0.065932842193382
  40      0.13640956078343
  41    0.0096865261505184
  42     0.045488032212868
  43    0.0022113165382583
  44     -0.00469066316058
  45    -0.0013180018219744
  46    -0.0057730971503353
  47    -0.0013922929538923
  48    0.0047698167560534
  49    -0.007983092255598
  50    0.0010729882863392
  51    -0.0057810685825991
  52    0.00059939845194109
  53    0.0013726061784428
  54    0.0012667054239429
  55    -0.0075760629332242
  56     0.013456198757729
  57      0.01161495975293
  58    -0.00010600455670221
  59    -0.014793092639711
  60     0.015129798451267
  61    8.2185801470945e-05
  62    -0.018827656253032
  63    -0.044231364832295
  64    -0.0001285180257602
  65     0.060382456196979
  66     -0.04555145978192
  67    -0.0076497606077264
  68     0.045532600045348
  69    -0.0022580027336188
  70    -0.00012908382957276
  71    -0.0039554247123718
  72    0.0001413543782374
  73    0.0036895492543964
  74    -0.0005148945263525
  75    -0.0010574636557466
  76    -0.0086030891227051
  77    6.794405783411e-05
  78    0.0055551770879701
  79    -0.021327566992776
  80    -0.044013944085437
  81      0.10806293588695
  82     0.062116742443389
  83     0.012825464549752
  84    0.0010615859613329
  85     0.084682392121541
  86     0.016027174824451
  87     0.001540206470512
  88      0.11525697442601
  89     -0.04953582755876
  90    -0.0040091560585199
  91     -0.32433683784712
  92    -0.043732383118147
  93    -0.0058768977874406
  94     -0.39567163252678
  95    0.0074372190150919
  96    0.0043752956744777
  97    0.0029781820318217
  98    8.1030388716241e-05
  99    0.00030301334630032
 100    0.0014234450529777
 101     0.011419064003077
 102    0.0063324157630377
 103     0.000627095391559
 104    -0.00037619858416363
 105    -0.039373303515398
 106    -0.087033743258511
 107      0.20139429656665
 108      0.14382530975645
 109    -0.048722809684987
 110    0.0049469190792908
 111     -0.02288350608009
 112    -0.066636679109656
 113    0.0065053228561359
 114    -0.029564362197575
 115      0.19190553120999
 116     -0.01901752666348
 117     0.084163567444362
 118      0.20702658179517
 119    -0.016188606007766
 120       0.0887858867582
 121    -0.0067776465842414
 122    0.0046334552964972
 123    -0.00039126169124651
 124    0.0085880298138952
 125    -0.0012399168336402
 126    -0.0056316122372677
 127     0.013626003844055
 128    -3.6591280029095e-05
 129     0.011878151494134
 130    -0.0024048992141133
 131    0.0015042550455121
 132    -0.00011598559999348
 133    -0.0070652015199329
 134     0.015591832135102
 135     0.017191490066741
 136    -0.0022291644387273
 137    -0.024685212502636
 138     0.021841229948101
 139    -0.0024095326905456
 140    -0.030801093658721
 141    -0.063624537516024
 142    0.0071761878853121
 143     0.090607799117641
 144    -0.060916852422762
 145     0.010946511638503
 146     0.086092748940266
 147    -0.0028631079479471
 148    0.00016246382842674
 149    0.0059386439295858
 150    -9.0921058002988e-05
 151    -0.0045831725845755
 152    0.0001905130923908
 153    -0.0030071137976471
 154     0.011296544113918
 155    0.0017016021867587
 156    -0.0068317668319518
 157     0.061985089797773
 158      0.12399339518138
 159     -0.30606687575675
 160     -0.16185279463316
 161    -0.0008749650248874
 162    -0.014274632529805
 163     0.068999371149713
 164    -0.0017376069647414
 165    -0.018114990660148
 166     0.095021439069448
 167    0.0037036213716838
 168     0.052635367620386
 169      -0.2678683843834
 170    0.0099151741210898
 171     0.053245459593581
 172     -0.28525091671175
 173     -0.01048332565903
 174    0.0010917868474691
 175    0.0048867312288929
 176    0.00099011470580879
 177    0.00049584679476662
 178    -0.022372218536213
 179    -0.00037193769307662
 180    0.0035533535656418
 181    0.00028304992949775
 182     -0.00163559076145
 183    -0.021697160277675
 184    -0.0046763191123673
 185     0.032477584284562
 186     0.040104799831553
 187    -0.0088760112824085
 188    0.00024907751944532
 189     0.085371919385777
 190    -0.0096543952720947
 191     0.000717503909903
 192     0.090466078472902
 193     0.026774911145898
 194    -0.0014967829267098
 195     -0.27955955840968
 196     0.047724872558375
 197    -0.0029134061631928
 198      -0.4265339005275
 199    0.0054442132151155
 200    -0.0068187059538834
 201    -0.0075711430105606
 202    -0.0012785572723031
 203    0.0002938618303804
 204    -0.00026908394602423
 205    -0.00091704348364923
 206    -0.00015680976327821
 207    0.00030609615889893
 208    -0.00090754100994255
 209    0.0021077726246158
 210     0.008052679266445
 211    -0.017708171626054
 212     -0.01830364740074
 213    -0.004136957812818
 214    -0.0011187256028107
 215    -0.006310468341604
 216    -0.005851004670623
 217    -0.0012349335075914
 218    -0.0078363467107094
 219     0.019283489004615
 220      0.00383745451456
 221     0.027532590698694
 222     0.019695484850001
 223     0.004244427767806
 224     0.014407799891004
 225    0.0023648472456766
 226    -0.00038047760472936
 227    -0.00018874928525436
 228    -0.0015191354146776
 229    -0.00041150710025465
 230    0.00031943725834486
 231    -0.0065089657787828
 232    -0.00030448627609765
 233    -0.0011042757883486
 234    -0.00026213773540169
 235    -0.0019419390046238
 236    4.6148784403961e-05
 237    0.0027663748698726
 238    -0.0069160627786871
 239    0.00049359247697582
 240    -0.00035194144363556
 241    -0.006544751380569
 242    0.00065864735478657
 243    -0.000579649448947
 244    -0.0085343843181865
 245    -0.002188792078232
 246    0.0034948069148857
 247     0.028543150606402
 248    -0.0019492524297728
 249    0.0026495865476277
 250     0.020518244220191
 251    0.0020127014290112
 252    0.00011166813668475
 253    -0.00094930666818717
 254    0.0007287801220399
 255    0.00010871769732438
 256    -0.0011814729776598
 257    -0.0014514162231566
 258    -0.0069421420015839
 259    0.00013625632619263
 260    0.0006471003882307
 261    -0.031313677296983
 262    -0.068156932596953
 263      0.16314460829508
 264      0.09819455329043
 265    0.0050863769732667
 266    0.0039737128101135
 267     0.032494400527066
 268    0.0066770974566448
 269    0.0054828894575243
 270     0.045685500150142
 271    -0.018673647937898
 272    -0.015165154519531
 273     -0.13312605074985
 274    -0.022214922789998
 275    -0.016691886664797
 276       -0.138928984155
 277    0.0048689012302792
 278    0.00099849608666084
 279    0.0010023785432129
 280    7.8641184749124e-05
 281    0.0010998390213744
 282     0.013556555689769
 283    0.0035795850788713
 284    0.0021882610684324
 285    -0.00026025202892427
 286    -0.002514609521358
 287    -0.0027702639425851
 288    -0.0029959062230946
 289     0.010953953534662
 290    -0.0030179833442466
 291    0.00017359346907353
 292    0.00023754475755316
 293    -0.011052551084681
 294    0.00025671433822258
 295    0.00021729982843161
 296    -0.015093220386865
 297    -0.00047840807572405
 298    -0.00093523682052153
 299     0.042095704668165
 300    -0.0040635451664096
 301    0.0011494277812107
 302     0.048904830945689
 303    0.0017761810173946
 304     0.002533792637495
 305    -0.000724188467032
 306    -0.00067617890521326
 307      0.00019911073876
 308    -0.0010790263439349
 309    0.0083335727489458
 310    0.0006217454046295
 311    -1.5605414014623e-05
 312    -0.00021486091128741
 313    0.0031505938638677
 314    0.0090916482779776
 315    -0.020521317126454
 316    -0.018812994869341
 317    0.00036386293263622
 318    0.0066311943391689
 319    -0.0099046134982236
 320    0.00032913255380999
 321    0.0090328789279225
 322    -0.012929521530029
 323    -0.0011916901041935
 324    -0.026920644910695
 325     0.037655448727961
 326    0.00045869794666568
 327    -0.031467571633386
 328     0.037191883336251
 329    0.0025073418389355
 330    -0.00045395696588469
 331    0.0013561284870969
 332    0.0020012305390922
 333    0.00036979305152308
 334    0.0014469693692177
 335    -0.0010636951743387
 336    0.0073763052021106
 337    0.0019341536988579
 338    -0.00041671608556698
 339    -0.00094254014196871
 340    -0.00073448650714135
 341     0.021060863432895
 342    -0.0026003530338637
 343    0.0041486733265484
 344    -0.0032596673110198
 345    -0.0015535793859889
 346     0.019083369440196
 347    -0.010860528401597
 348    -0.00018193293495079
 349    -0.0001743168461558
 350    9.1325776308761e-05
 351    0.00010996946397672
 352    -0.00076256824781294
 353    0.0014506155757038
 354    0.0094935813525523
 355    -0.031455293289363
 356    -0.00089249767507919
 357    -0.0031443737682918
 358    0.0052995782383317
 359    -0.0029594030161275
 360    -0.017892459269409
 361    -0.00058610220882104
 362    -0.00022811316458937
 363    8.5832026064607e-05
 364    -0.00083201017316828
 365    -0.00016480164222921
 366    0.00051508623830908
 367     0.002583731580307
 368    8.3373961457989e-05
 369    0.0004178490284104
 370    -0.00034562025435246
 371    -0.00058795794017678
 372    -0.0034090119135731
 373    -0.00032201214520216
 374    -0.00080299905434784
 375    -0.00024975337571018
 376    1.2855958369473e-05
 377     0.027067351750952
 378     0.028186657678047
 379    2.8856336546749e-05
 380    -0.00027478710187046
 381    -0.0026755217940973
 382     0.001587805255419
 383    0.0087615795016409
 384    0.00045843912363805
 385    0.00075830729750046
 386    -0.00019421875564187
 387    0.0052998993913847
 388    -0.0063901652094116
 389     0.000737129911242
 390    0.00023325380494541
 391    -0.00018686710469629
 392    0.0052615595714645
 393    -0.025352517312596
 394    -0.00095581140761169
 395    -0.00063876366425297
 396    -0.00027222898647895
 397    -0.0022250292316577
 398    0.0051000533376563
 399     0.018174725406868
 400    0.0002859927065401
 401    -0.0043547632747486
 402    -0.0028898000101889
 403    3.6676489335073e-05
 404    -0.0044094277140935
 405    -0.0014563330013212
 406    0.00020071587728038
 407    0.00069630622735736
 408    0.00077327971431806
 409    -6.7343319843027e-05
 410    5.1925891267965e-05
 411    0.00057342075025238
 412    0.0029381707858962
 413    -0.0071619108302942
 414    -0.0016153291603373
 415    0.0022090828487376
 416    0.0002110115959211
 417    -0.00043532122594064
 418    -0.0015768128421933
 419    -0.013353164065822
 420    -5.8851854525266e-05
 421    -0.00039834053959445
 422    -0.0011810526057753
 423    4.5451364496758e-05
 424    -6.2591893234293e-05
 425    0.0046325081980005
 426    0.0068955379351105
 427    -9.5157287420888e-05
 428    -0.00026101260696299
 429    -0.0027055484947939
 430    -0.001009243695924
 431    -0.0063796075767824
 432    0.0010983820750537
 433    0.00079576487385083
 434    -0.00064646750314226
 435    0.0059448961835426
 436    0.0061150419727426
 437    -0.00047827751788844
 438    -0.0011666700531897
 439    -0.00089799387096739
 440    0.0085266436641676
 441    -0.020138926912102
 442     0.001280994211078
 443    -0.00019420295211755
 444    -0.00011537886347709
 445    0.00020332799599455
 446    -0.0024634093955749
 447    -3.684675283069e-05
 448    -0.00019764221232559
 449    -0.00015344147163326
 450    0.00045590990879375
 451    -0.0042458125072002
 452    -0.00055567842210408
 453    2.572808450957e-05
 454    2.8721597376055e-05
 455    -0.00028085587915282
 456    0.0016634248712736
 457    0.0082402094665804
 458    0.00020260820629961
 459    -1.439887723947e-05
 460    9.8350035402871e-05
 461    -3.5846018102709e-05
 462    -0.00014103599976776
 463    0.00064436252095429
 464    -5.3400037582753e-05
 465    -6.4434314459008e-05
 466    -3.2445450986222e-05
 467    4.0067971458182e-05
 468    -6.9181532630718e-05
 469    0.0020591711177471
 470    0.0051435570110728
 471     0.011526661782015
 472    -0.0039728976464901
 473    0.0035567826815356
 474    -0.0009632883613255
 475     0.006417575949998
 476    -0.0090064160708179
 477    -0.0020038554967074
 478    -7.0807005074461e-06
 479    0.00032237460221046
 480    -0.00026512378174902
 481    2.1598503270393e-05
 482    8.6976737814177e-05
 483    0.0023787311655176
 484    -0.0038378477060559
 485    -0.00021722320434805
 486    -0.00059581729061296
 487    -0.00033679007580211
 488    0.0025657906373215
 489    -0.00085045658058229
 490    0.00058135860326475
 491    -0.00016921476218271
 492    -0.00025744586928275
 493    0.0061356950119016
 494    -0.011957169021954
 495    0.00075337516014472
 496    -0.00078192871756902
 497    -0.00017036093595653
 498    0.0003245615054771
 499    -0.00071430687253676
 500    9.6877578685647e-05
 501    -7.095124285675e-05
 502    -0.00013458046430573
 503    0.00059518892273449
 504    -0.0034318341441808
 505    0.00021434552066559
 506     7.37447385234e-05
 507    2.9483524861464e-05
 508    0.00029307221738312
 509    -0.0025408832492098
 510    -8.1656129434195e-05
 511    -0.00018248317551324
 512    0.00012628718159208
 513    0.0003356867866983
 514    -0.00050025087949858
 515    -0.0054190569374718
 516    0.00030132577141087
 517    -0.00013718431761822
 518    -0.00046444176028869
 519    -0.0022604960038449
 520    0.0015180159994963
 521    0.0060960395184942
 522    -0.00023644250415206
 523    0.00016767077649272
 524    0.0001339519325863
 525    -6.5127914060612e-05
 526    2.275299603641e-05
 527    -0.00067673307033961
 528    -0.0015425562853473
 529    -0.0059842520420925
 530    0.0023021995561471
 531    0.0015782082524359
 532    -0.0027893641518564
 533    -0.0049540712496008
 534    -0.002989663212395
 535    0.0047607770770452
 536    6.8505797748042e-05
 537    0.00041259878952133
 538    -6.3555607500831e-05
 539    0.00013931168902812
 540    -7.6027409326333e-05
 541    0.0031307056387481
 542    0.0048526753013682
 543    -0.0013161783504499
 544    0.00061272750634668
 545    0.00036223074941838
 546    -0.0054099907911655
 547     -0.00785253521581
 548    0.00095588620838817
 549    -0.0010683868582657
 550    -0.00041505771406711
 551    -0.00084609249422045
 552     0.013175241881646
 553    -0.00020741642245083
 554    -0.00018422485339433
 555    -0.00014836017387581
 556    -0.00078784088509641
 557    0.0013436362064869
 558    2.1459493403579e-05
 559    -0.00021366163537845
 560    -0.00036312676247485
 561    -0.0014343820448232
 562    -0.0011223796899298
 563    0.00033727434477859
 564    3.0484529888168e-05
 565    -0.00013805984593371
 566    0.0014808580968294
 567    0.0075851142396954
 568    -0.00043614602012392
 569    6.8099189721783e-05
 570    0.00046399326020025
 571    -0.0013824476195238
 572    0.0024683931551552
 573     0.017933778852355
 574    -0.0031824755336528
 575    0.0041919015220266
 576     0.001492226933902
 577    -0.0057111361455215
 578     0.006022379327027
 579    -0.0030765075069508
 580    -9.8642699260517e-06
 581    -0.00025220154801879
 582    0.00020399515041832
 583    3.0989225043792e-05
 584    -0.00010466256580233
 585    0.0010300939456361
 586    0.0040321344380781
 587    -0.0047724669324312
 588    0.0018763405579961
 589    -0.0022302753951523
 590    0.00082487745839109
 591    0.0030448387994551
 592    0.0024436597966098
 593    0.0024716197834179
 594    7.5680228968022e-05
 595    0.00019055182374098
 596    9.9763204416819e-05
 597    2.880379935379e-05
 598    4.9421110488597e-05
 599    0.0054254437708224
 600    0.0055960318196709
 601    -0.00026847078909789
 602    5.6071141202468e-06
 603    0.00047725120438252
 604    0.00057652673981226
 605    -0.0067191532362338
 606    0.0003569898611538
 607    0.00023561856013669
 608    0.00024602005063403
 609    0.00022964724531263
 610    0.00091467175419425
 611    -0.00029616782448016
 612    4.730378916978e-05
 613    -8.6418687569428e-05
 614    0.0057198498700477
 615     -0.01226103973992
 616    -0.00019962098225031
 617    0.00024940584375959
 618    -0.00017463255877819
 619    0.00039691206685158
 620    0.0014764956868168
 621    -0.0001673473927484
 622    0.00026138121194023
 623    -9.2032660565175e-05
 624    0.00071725633044722
 625    -0.0080110929522146
 626    -0.00020171552476854
 627    -0.00033266161187471
 628    3.4123747879654e-05
 629    0.0029719215202495
 630    -0.0072293310268825
 631    -0.028939497162273
 632    0.0060362387081295
 633    0.0048913309926254
 634    0.0018436601019643
 635    -0.00097700369737735
 636    0.0018173397408663
 637     0.013241269992335
 638    9.3317951179892e-05
 639    -0.00025515344420529
 640    0.0004015087150158
 641    3.6277982629748e-05
 642    5.7991606734854e-05
 643    -0.0016540999326177
 644    -0.007703344309225
 645    0.0087058297853446
 646    -0.0011804684403909
 647    -0.0031759584033713
 648    0.0014454272639157
 649    -0.0045426937616233
 650    -0.0095192024856952
 651    0.0044236988550901
 652    -4.9774951072906e-06
 653    0.00030039297825782
 654    -2.0606889682804e-05
 655    0.00014761056289478
 656    4.744493092602e-05
 657    -0.019577077108264
 658    -0.024210867576136
 659    0.00057534212360334
 660    0.00041740539957384
 661    -0.00038788428233839
 662    -0.001709633704554
 663    0.0036693337288293
 664    0.00019481102850745
 665    -0.00010829236099841
 666    0.00015673777520834
 667    -0.0011030960252955
 668     0.010109453838652
 669    0.00026935314212235
 670    -0.00072651688673332
 671    -0.00021433291982766
 672    -0.0042780138968619
 673     0.016906507436958
 674    -0.00041050704450404
 675    0.00068909136525858
 676    -0.00015104875599335
 677    0.0055018102260291
 678    0.0069417998452566
 679    0.00025658006134014
 680    -0.00047673230030683
 681    -0.00016417663810899
 682    -0.0067175447526419
 683     0.023453243225197
 684    -0.00017676379301353
 685    -0.00029202358345622
 686    -5.8695420442644e-06
 687    0.0019040248282645
 688    -0.0042876245799823
 689    -0.019429775609197
 690    0.00065342805167356
 691    0.0037633795947457
 692    0.00091655469787186
 693    -0.0001450299384812
 694     -0.00165989732565
 695    0.0030111359918513
 696    -0.00016244745355077
 697    -0.00021195334436222
 698    -7.7009097670316e-05
 699    -0.00011602062572246
 700    0.00021924029177687
 701    0.00093482958169127
 702    0.0017475794839109
 703    0.0026165431152967
 704    0.0014604105571468
 705    0.0039250546347583
 706    0.00077616186019061
 707    -0.0002243518473616
 708    -0.0015847998468618
 709    -0.0031199728514341
 710    8.4679802732508e-05
 711    0.00017591421863806
 712    -0.00011576142838728
 713    0.00021543245173161
 714    -0.00030612791220935
 715    -0.00045105892506943
 716    -0.00092203335482183
 717    -0.00035571908301661
 718    -0.00013686058833586
 719    0.00017534650979727
 720    -0.0034433682619997
 721    0.0023312213837383
 722    0.0011195141562076
 723    0.0013986051986144
 724    -0.0014136332099494
 725    -0.00030370647907811
 726    0.0014754334827397
 727    -0.00019180926930137
 728    -0.00032238006960092
 729    1.4475294983665e-05
 730    -0.0047050296861602
 731     0.013796032609602
 732    0.00047558331505965
 733    0.00012273206769328
 734    0.00018744719105236
 735    -0.0037125455825747
 736    0.0053433862982402
 737    0.00016471257149181
 738    3.8399783564241e-06
 739    -0.00016413867882622
 740    0.0039029467158556
 741    0.0064769297055264
 742    -0.00014750420588902
 743    -0.00017916293929556
 744    -9.343914178089e-06
 Sym= A
 Ene=   0.09078337037
 Spin= Alpha
 Occup=    0.00000
   1    -0.00035343557104403
   2    -0.00021231903688985
   3    0.0038616038951016
   4    -0.0067014055859643
   5    -0.0007833017387263
   6    -0.0011808857841977
   7    -0.0018057094650671
   8    -0.00080142726309596
   9    -0.0012052932039524
  10    -0.0018502317148698
  11    0.00099017617024345
  12    0.0032738850942336
  13    0.0038093405263116
  14     0.011247950043962
  15    0.0051154792687773
  16     0.013606925769937
  17    -0.00092332889435321
  18    -0.0016323010427545
  19    0.00010294816864129
  20    -0.0011803933232169
  21    0.00095871387810548
  22    -1.0914332422534e-05
  23    0.0019793814439335
  24    -0.00032703508012825
  25    0.0010847133848268
  26    -0.0017936286602007
  27    -0.0025456582294296
  28    -0.0026658928599948
  29      0.00940315502081
  30    -0.0038585541936222
  31    -0.0015802560502765
  32    0.0001944510773517
  33    -0.0021930790997423
  34    -0.0019528113046642
  35    0.00022166455273481
  36    -0.0027252624473019
  37    0.0046530408302698
  38    -0.00080315552728724
  39    0.0063984372408875
  40     0.007832235325268
  41    3.9357614884823e-05
  42    0.0085899434629787
  43     0.001131029734682
  44    0.0009293791042288
  45    -6.5489154518211e-05
  46    -0.00057788830837294
  47    -0.00054380084455573
  48    -0.0015568231175204
  49    -0.0013611522098279
  50    -0.00034597080129569
  51    0.00062482084936758
  52    0.0010837146604325
  53    -0.0026757057453356
  54    -0.0027657321350042
  55    0.0089153123240822
  56    -0.0016413280862907
  57    -0.00092503481437798
  58    -0.0011911584267763
  59    -0.002059678228837
  60    -0.0011604753628014
  61    -0.0014487540543985
  62    -0.0025723764968885
  63    0.0026413134725629
  64    0.0040063640204859
  65     0.006032059531145
  66    0.0036180921645459
  67    0.0036295718495829
  68    0.0076651869306635
  69    0.0010333540167078
  70    0.00050148436456369
  71    0.0003949829843606
  72    0.00084771104214476
  73    2.2886327376169e-06
  74    -0.0016361154225654
  75    -0.00095360049929139
  76    -0.00048905207301066
  77    -0.0012925959459354
  78    8.3818752672914e-05
  79    -0.0059018962533263
  80    -0.0061224828509752
  81     0.019824285060369
  82    -0.011704163372969
  83    -0.0023724355461139
  84    -0.00091435807007234
  85    -0.0016307653570279
  86    -0.0030300215311957
  87    -0.0011395605285313
  88    -0.0019833758858297
  89    0.0052714222940896
  90    0.0025235736167584
  91    0.0060329155906601
  92      0.02100082346507
  93    0.0048817685596508
  94    -0.0038649576918881
  95    -0.0041657593068585
  96    0.0028132137679113
  97    4.3329435199922e-05
  98    0.00077228757572838
  99    0.0033271995710403
 100    0.0047807135160155
 101    -0.0037096834957469
 102    -0.00037725617060142
 103    -0.0017023064010653
 104    -0.0040197565285319
 105    -0.0025887277122793
 106    -0.0026766893477555
 107    0.0079660667861317
 108    0.0040341140106084
 109    -0.0011000963634175
 110    0.0004593849294457
 111    -0.0016437752424854
 112    -0.0013626807137512
 113    0.00057892804466125
 114    -0.0020095967380218
 115    0.0032343851008743
 116    -0.0012114308130872
 117     0.005588498170784
 118    0.0065231841853873
 119    -0.0026311122380427
 120    0.0029326259520456
 121    0.00051111833069917
 122    0.0001582447592256
 123    -0.00029050983038947
 124    -0.00014421506930248
 125    -0.00032456684987059
 126    -0.0010421300229713
 127    -0.00054232922920009
 128    0.0006215859841567
 129    0.00047958831709883
 130    0.00029131827676693
 131    -0.003924854422825
 132    -0.0042119938470623
 133      0.01638066956965
 134    -0.0066195164352597
 135    -0.00073716029771594
 136    0.00080602190656117
 137    -0.0026370758479785
 138    -0.00084187927521949
 139    0.00095747633477615
 140    -0.0032099012038256
 141    0.0038211980460421
 142    -0.0032405113827663
 143    0.0094179245636122
 144    -0.005459002869939
 145    0.00078018460182323
 146    0.0019082891832865
 147    0.00053553941998481
 148    0.00013925928833238
 149    -0.00093788875096514
 150    0.00063890512634431
 151    -0.00099635632678796
 152    -0.0012554294631659
 153    -0.00082593426919988
 154    0.0014575902809547
 155    -0.001438707889361
 156    0.0015615933632548
 157    -0.0018225499261594
 158    -0.0018345360209282
 159    0.0044646070929145
 160    0.0055203991288444
 161    -0.00020718404223877
 162    -6.2715031874993e-06
 163    -0.001396185490762
 164    -0.0002473136462101
 165    -6.78541950575e-06
 166    -0.0017364716430446
 167    0.00088778093432132
 168    8.1673083330562e-05
 169    0.0038289649670894
 170    -0.0011538718326648
 171    -0.00076507342034511
 172    0.0087866059905776
 173    0.00013138866394908
 174    1.5081454384466e-05
 175    -0.00011263853593994
 176    1.0153534972495e-05
 177    0.00014391995800696
 178    0.00018013294914164
 179    -0.00030444861726802
 180    3.2895504829834e-05
 181    1.4024452191736e-05
 182    -9.4863746430696e-05
 183    -0.0053113394047422
 184    -0.0018380940296143
 185     0.031421293896584
 186     -0.04495925128706
 187    0.00027240236823854
 188    -0.0038276565053203
 189    0.0035864302659309
 190    0.00033997592498531
 191    -0.0039605621710223
 192    0.0037158179085857
 193    0.0078242830278202
 194    0.0015952834363079
 195    -0.00057884551050316
 196     -0.04435802103246
 197     0.068814997114396
 198     -0.06909710558267
 199    -0.0030355242403496
 200    -0.00041759600284729
 201    -0.0023029435413199
 202    0.00034979667587993
 203    0.0042115959374284
 204    0.0011579660752506
 205    5.9635305853526e-06
 206    0.0026886901376059
 207    0.0017131182225647
 208    -0.004241864525813
 209    -0.035374672115422
 210    -0.037194823022477
 211      0.12252355812195
 212    0.0013694658629885
 213    -0.0096152403366507
 214     0.016600892524124
 215    -0.012220678219134
 216    -0.011564885941628
 217     0.020490049818831
 218    -0.015070805060662
 219     0.036524544899512
 220    -0.051902973273553
 221      0.03834254353994
 222    -0.0021141931907586
 223    -0.064661534055215
 224     0.048415812628886
 225    0.0034508337938063
 226    0.0017032799103907
 227    -0.010369342590026
 228    -0.0077885726992841
 229    -0.0043351362348286
 230    -0.0052173579948752
 231    -0.0036903424722329
 232     0.014617659189258
 233     0.012739659010583
 234    0.0091658128195158
 235    -0.0093956756838741
 236    -0.0097804736525107
 237     0.030767191743737
 238    -0.0074075901052391
 239    -0.00096990019116016
 240    -0.0022178633848637
 241    -0.00092043754585802
 242    -0.0012017395503395
 243    -0.0027342289426964
 244    -0.0011107461645259
 245    0.0033577861287549
 246    0.0065344157951184
 247    0.0033245623755752
 248    0.0020084073151689
 249     0.017871002693434
 250    0.0054222083624716
 251    0.0007428841528151
 252    -0.0031102379370294
 253    -0.00051550915076542
 254    0.0040945119381908
 255    -0.0027697510914609
 256    0.00015499340136886
 257     0.002781429059911
 258    -5.1841679000034e-05
 259    -0.0051719543130971
 260    0.0041757962079207
 261    -0.022998373862533
 262    -0.024009753692457
 263     0.073417888168927
 264     0.027111640860125
 265    -0.010158333607212
 266    0.0044693822898948
 267    0.00099977833945427
 268    -0.012231985249049
 269    0.0055232154506302
 270    0.0013950171554816
 271     0.039360632502506
 272    -0.014728854001749
 273    0.00040467632823096
 274    0.0013144983695544
 275    -0.014334382525429
 276    -0.032533087583021
 277    -0.0060221676885335
 278    -0.0011011222583787
 279    0.0023898019225138
 280      0.00264646248801
 281    -0.0095154218269556
 282     0.011867833615589
 283    0.0019199572635698
 284    -0.003521220605719
 285    -0.006813239790932
 286      0.01511313591411
 287    -0.0072934218337504
 288    -0.0076771176513549
 289     0.026175454355609
 290    -0.011709176494819
 291    0.00036211676106137
 292    4.1713950178835e-06
 293    -0.001908477562946
 294    0.00047713921867196
 295    -1.4645206978762e-05
 296    -0.0023612152124341
 297    -0.00027465167739693
 298    -0.00046626285703489
 299    0.0057008382817752
 300    -0.011782961463262
 301    0.00031200259510915
 302     0.010689696506375
 303     0.001287723181066
 304    0.00097192651472554
 305     0.002439955459003
 306    -0.0027243792708668
 307    -0.0015923969156159
 308    -0.0013320956982913
 309    -0.00050392913077931
 310    -0.002930406008455
 311    0.0033775075505431
 312    0.0016373621183057
 313    -0.026129624448337
 314    -0.027276927229094
 315     0.083905180094732
 316     0.025145209008261
 317    -0.014043475338096
 318    0.0010185558667487
 319    -0.0071099897356151
 320    -0.016980646072252
 321    0.0010600690119324
 322    -0.0088062165792476
 323     0.052374524552135
 324    -0.0077135266653606
 325     0.022673677478393
 326     0.010205184210978
 327     0.028689805308869
 328     0.024548013995302
 329    0.0016588341806464
 330    0.0090062614543989
 331    0.0013949689010662
 332    0.0071221389896913
 333    -0.00099536684668129
 334    -0.0013297428470197
 335    -0.014499881277314
 336    -0.001795869421972
 337    -0.014466037589611
 338    0.0020316926744566
 339    2.0047340845418e-05
 340    -0.0026252845754663
 341     0.019620587104512
 342    -0.003622083342318
 343    -0.0056263727347794
 344    -0.0051753028054256
 345    -0.0045851029199907
 346    -0.012408383760758
 347    -0.005818393763325
 348    0.00010106398767379
 349    0.0002239407504667
 350    -5.5000953407479e-05
 351    0.00012399944596212
 352    0.00026257045142357
 353     0.010019896745745
 354     0.015892577329824
 355      0.11437133661805
 356    -0.010824527429193
 357    0.0024495660988571
 358    -0.010905000628286
 359     0.022332824743794
 360    -0.010206962519339
 361     0.022549922768855
 362    3.8155137171173e-05
 363    -9.1681798265341e-05
 364    4.5097231879898e-05
 365    3.0448199022795e-05
 366    -0.00012401410424214
 367    -0.0026247207954898
 368    -0.039626038235323
 369    9.504697163844e-05
 370    -1.0446190030703e-05
 371    -8.3144427985245e-05
 372    -0.0077461692650648
 373     -0.10828149271443
 374    -0.00046134323288997
 375    -0.00023304722935297
 376    -0.00096263601426724
 377    -0.0045147926780327
 378    -0.024636983287525
 379    -0.00043833749310932
 380    -0.00062737961970908
 381    0.00025088074656219
 382    0.00059735265686775
 383    -0.015903052492624
 384    -0.00030545791604749
 385    -0.00010206534052597
 386    -0.00038633521304845
 387    -0.0010887306187094
 388    -0.0063620006452159
 389    -0.00031125726595281
 390    3.3331127854858e-05
 391    -0.00021142100460835
 392    0.0019667024191031
 393    1.5443641189389e-05
 394     0.000105183457395
 395    -0.0005349262241277
 396    -0.00017845226027631
 397    -0.0014572646551044
 398    0.0011531382249912
 399     0.036112252495641
 400    -0.0036075509534909
 401    -0.0017495387977807
 402     0.001780732169108
 403    -0.012627043893633
 404    -0.0047187460625098
 405    0.0059951556779428
 406    2.5632803112893e-05
 407    5.1475589264638e-05
 408    -0.00012267699077411
 409    9.7199823453925e-06
 410    3.7377752334984e-06
 411    0.0033540194606173
 412     0.004317870318524
 413      0.04759437012689
 414    -0.0021829117924983
 415    -0.0035903591602497
 416    -0.003551869288437
 417    0.0036670969644137
 418    0.0094455746917686
 419     0.010855931384604
 420    0.00010966260276575
 421    -2.6788085875241e-05
 422    7.0168844915273e-05
 423    -6.021109708325e-05
 424    6.0221378989508e-05
 425    -0.0015959985729622
 426    -0.011849608123392
 427    -8.2551489676915e-05
 428    -0.0001468712602216
 429    2.2912481824398e-05
 430    -0.00071011782329197
 431    -0.0095955864235254
 432    8.0297547763044e-05
 433    -9.929629626527e-05
 434    -5.9096616900836e-05
 435    -0.0022856924492985
 436    -0.049490593934213
 437    0.0002322350900022
 438    0.00046943340360975
 439    0.00057156519398763
 440    0.00021461563679164
 441    -0.0074758348674665
 442    -4.9453051681604e-05
 443    2.0405244012744e-05
 444    7.1180567631537e-06
 445    -8.4658574191359e-05
 446    -0.016858621732885
 447    -0.00011307760752995
 448    1.8902454990128e-05
 449    -8.545161542062e-05
 450    0.0012147349456634
 451    -0.027822492320166
 452    -3.4249921767851e-05
 453    -0.00022704747984682
 454    0.00019981536246255
 455    -0.0055261653840109
 456    0.0053513409831439
 457      0.13592964312687
 458    -0.0063437362729831
 459     0.011021646921744
 460    0.0073400214095479
 461    -0.023598516880313
 462     0.041537871786538
 463     0.026311336270625
 464    -0.00037202616780378
 465    -0.00031062776817056
 466    0.00028407020659038
 467    -0.00021625157447125
 468    -0.00062762126250889
 469     0.014751922570813
 470     0.023106967833371
 471      0.18364051921435
 472    -0.0098034652628135
 473     0.011346462415115
 474    -0.0023663386352478
 475     0.024421290637514
 476    -0.029235576891492
 477    0.0073247740255612
 478    -2.741200215198e-05
 479    -5.442707083864e-05
 480    0.00036313839546949
 481    -0.00015253141337385
 482    -0.00012245589002698
 483    -0.0058258666535693
 484    -0.068787289483302
 485    9.6167608059838e-05
 486    -0.00030662174530255
 487    -0.00024664903491802
 488    -0.0079557461611948
 489    -0.064592292494291
 490    0.00010232953616957
 491    -0.00022232874309484
 492    9.0164706990757e-05
 493    -0.012833783607616
 494     -0.13502292180513
 495    -5.17643515049e-05
 496    0.00024195168782298
 497    0.0002977393383075
 498    0.0012707793132962
 499    -0.064245345075075
 500    -0.00033256448892649
 501    0.0005106143253912
 502    0.00040156997056149
 503    -0.0015756431074674
 504    -0.066559744737113
 505    -0.00021311536024117
 506    0.00038290417508898
 507    0.00011449913063693
 508    -0.00050115545347227
 509    -0.066992708775015
 510    -0.00029667536132072
 511    0.00035826086175585
 512    0.00013909152057563
 513    -0.016669900308119
 514    0.0061869178419526
 515      0.46005094494649
 516     0.022495449015787
 517    -0.0040421036342272
 518     0.033103259588763
 519      0.13533703320894
 520    -0.023576353189466
 521      0.12150234440812
 522    0.0010500117949129
 523    0.0021174134240153
 524    0.00025778360368061
 525    0.0005052917911048
 526    -0.0001748492989323
 527    0.0048835352505506
 528     0.010756042565248
 529     0.032494987948694
 530    -0.0013613006079994
 531    -0.011512446612493
 532    -0.0026958406076868
 533    -0.0078609477957178
 534     0.026342418794779
 535    -0.0025740302342296
 536    -0.00033802581116981
 537    0.00042691537746661
 538    -0.0010794311452306
 539    0.00023938386604869
 540    -0.0011590953466065
 541    0.00017741616924841
 542     0.014664179617586
 543    0.00028096721987745
 544    0.00093342787230418
 545    0.00034642255495343
 546    -0.0027566980755908
 547    -0.029479293853832
 548    -0.00061541354035491
 549    0.00046068145366873
 550    0.00010365698166519
 551    -0.0043663304832918
 552    -0.065081201002551
 553    -0.00029542691293652
 554    -9.0513534457864e-05
 555    -0.00052156130296172
 556    0.0013857793856072
 557    -0.075941027554656
 558    -0.00060578048500362
 559    0.00099855492074902
 560    -0.00077845299800284
 561     0.010863573086658
 562     -0.44523751001335
 563    0.0041577356623162
 564    -0.00058605549919407
 565     0.004023753851491
 566    -0.012551387379149
 567    -0.096656741102925
 568    -0.00086653509080095
 569    -0.00013318253074044
 570    -0.0013752740541538
 571    -0.019030739653997
 572     0.024083372640532
 573      0.45922106209164
 574    -0.037504870108391
 575     -0.05813602032053
 576     0.056675443010275
 577     -0.09548150126843
 578     -0.18641401219409
 579      0.17395195601784
 580    -0.00071168620355745
 581    -0.0025064782352931
 582    -0.0031471229139115
 583    0.0036004700414486
 584    0.0030253446849179
 585       0.1035683230226
 586      0.16025906365994
 587        1.304684132846
 588     -0.13263723807121
 589     0.024224817774003
 590     0.011631348134218
 591      0.34758732030779
 592    -0.060878273895781
 593    -0.030973213534425
 594    -0.00031495699852344
 595    -0.0013588012236587
 596    0.0003679662785364
 597    -0.00041817979882936
 598    0.00024776422001381
 599    -0.044379097453353
 600     -0.09917116883717
 601    0.0019149407612716
 602    -0.0010594522945612
 603    0.0030043651780826
 604    -0.068559066797978
 605     -0.72732206702589
 606    8.9146157630464e-05
 607    0.0038980134240957
 608    0.0013794622427774
 609    -0.077995151831742
 610      -1.0805761519172
 611    0.0037956981455468
 612    -0.0045155243116599
 613    -0.0039088219898659
 614    0.0028528267075327
 615    -0.089748473375474
 616    -0.0013115017126838
 617    -0.0051276567536819
 618    -0.00034675262331799
 619    0.0027748981477823
 620      -0.4120994634349
 621    -0.0028637876613671
 622    -0.0016716306679925
 623    0.0029948978192622
 624    -0.00058059963542251
 625     -0.15935631833152
 626    -0.0029512512906793
 627    0.0011731482322801
 628    0.0034266551232717
 629    -0.00034219386889436
 630    0.00040611137173036
 631    0.0078000463190184
 632    0.00037627052189271
 633    -0.00033086039298752
 634    -0.00087599679018936
 635    0.0012238158424558
 636    -0.00091003574741924
 637    -0.0027766609517703
 638    3.9272500897486e-05
 639    -5.7456353693001e-05
 640    -7.5830546223621e-06
 641    2.4712315653746e-05
 642    -9.5568705520753e-06
 643    0.0011782446747312
 644    0.0020757802541569
 645     0.012497293993166
 646    0.00088391516670598
 647    0.00033026904672414
 648    -0.00085005954876011
 649    -0.0020884511235163
 650    -0.0002421299492522
 651    0.0017745130456628
 652    2.3469266058607e-05
 653    9.4862353528959e-06
 654    4.0075984981875e-05
 655    7.7936817561127e-06
 656    -2.3393854069922e-05
 657    -0.0011193389119626
 658    -0.0075518416083858
 659    1.985100885661e-05
 660    0.00010646443320773
 661    -9.1362261606319e-05
 662    -0.00038003434546069
 663    -0.0040165466473728
 664    -3.9762787987809e-05
 665    -3.9907671450861e-05
 666    1.1115166833254e-05
 667    -0.00068416274689746
 668    -0.0066717908653194
 669    -1.6717285537796e-05
 670     1.34637883519e-05
 671    1.734834500574e-05
 672    5.9125583034323e-05
 673    -0.0040003137072503
 674    3.3887116742181e-05
 675    1.0806329372609e-05
 676    -5.0865714633826e-05
 677    0.00010492213761154
 678    -0.0033649227379461
 679    2.0822069218465e-05
 680    -2.5274105755306e-05
 681    -4.6466552681802e-05
 682    -0.00015628914698661
 683    -0.003543871890458
 684    3.5516009371483e-05
 685    1.6791759792566e-05
 686    -1.0183499934193e-05
 687    -0.0029883114007446
 688    0.0022138089681534
 689     0.078189246172367
 690      0.01235955652307
 691    -0.0015353811137893
 692    -0.0026371344772664
 693     0.043219620472027
 694    -0.0079162111914985
 695    -0.0038836118914075
 696    0.00015862581901133
 697    -0.00051982753633956
 698    -0.0003275841880463
 699    0.0001326549931066
 700    0.00011782404271627
 701     0.013467055359953
 702     0.022455832406548
 703      0.15604026081481
 704    0.0030738986714822
 705    0.0075094141898222
 706     -0.01393849578816
 707    -0.015867503512528
 708    -0.0089602845775368
 709     0.020912815533431
 710    -0.0001791817129994
 711    -7.475412459261e-05
 712    0.00047868496211409
 713    0.00032814320514674
 714    0.00019803120511349
 715    -0.011927850849514
 716    -0.042908188185585
 717    -0.00063363819405369
 718    -3.3262723672467e-05
 719    0.00034877840051492
 720    -0.0057452235929152
 721    -0.095817453368468
 722    -0.00063823028923354
 723    0.00051324033431367
 724    -0.0011850347146833
 725    -0.0023857384823015
 726    -0.093672885140454
 727    4.8734583962813e-07
 728    0.00066493834325907
 729    -0.00046876809869761
 730    -0.0010551767620089
 731    -0.0038001578258732
 732    0.00018419058304076
 733    0.00025511977374446
 734     0.000358474984547
 735    0.00033509421943774
 736    -0.070954233562086
 737    0.00087804959116668
 738    -5.9921795503512e-05
 739    -0.00062581212365592
 740    0.0010659930362308
 741    -0.033551409423178
 742    0.00017173531448773
 743    -6.2671771514639e-05
 744    -0.00049348402597986
 Sym= A
 Ene=    0.1172950926
 Spin= Alpha
 Occup=    0.00000
   1    0.0085078872947948
   2    0.0012153235649746
   3    -0.0098654303006017
   4    -0.016546974797572
   5    -0.0018749123103204
   6    0.00025888747119465
   7    -0.016846538156251
   8    -0.0019095959446794
   9    0.00028503445566992
  10    -0.017202002807299
  11    0.0055647984976737
  12    0.0019054578724624
  13     0.043691690059686
  14    0.0054667306857908
  15     -0.01163007014596
  16      0.10243996931266
  17    -0.0088555797417984
  18    0.0012662755713646
  19    -0.0010850788001574
  20    -0.0025263169135309
  21    -0.00021287968334133
  22     0.007395306743277
  23    -3.1101636463901e-05
  24    0.0030124353977573
  25    0.0027331339530539
  26    -0.00034658820966956
  27    -0.0084231381919201
  28    -0.0086616803216722
  29     0.026111832248334
  30    0.0024930801387642
  31    -0.002767645545547
  32    -0.0044308842930926
  33    -0.00052698237340967
  34    -0.0033961640450624
  35    -0.0055244591415859
  36    -0.00067855475109874
  37    0.0088322457213925
  38     0.012788749764866
  39    0.0010935532765536
  40     0.008868168242063
  41     0.020338015624477
  42    0.0017661847847767
  43    0.0010499641034564
  44    0.0015687490385626
  45    -0.0015140946157003
  46    -0.002659835302416
  47    0.0003907040769141
  48    -0.0017687328949581
  49    -0.0014369701994616
  50    0.0024728194957073
  51    0.0034393675067572
  52    -0.00067791904513966
  53    -0.017012357311167
  54    -0.017516103877282
  55     0.052293159006738
  56    0.0084442214423319
  57    -0.0017131158374273
  58    -0.0069672578309478
  59    -0.0053494169862706
  60    -0.002199372971136
  61    -0.0084468511120209
  62    -0.0066765052479879
  63    0.0038598167562797
  64     0.024469672596661
  65     0.015773066597336
  66     0.011230579922427
  67     0.012156038243017
  68     0.017843284857158
  69    0.0035423276645404
  70    -0.0014827233385548
  71     0.003360582430699
  72    0.0038704496418659
  73    0.0010164563886346
  74    -0.0054280364287301
  75     0.001580853534459
  76    -0.0046904128899734
  77    -0.0057274364475983
  78    -0.0019043015384708
  79    -0.0028570334613126
  80    -0.0035893661467963
  81     0.026948990668961
  82    -0.068817615406367
  83    0.00080781238730893
  84    -0.0061500543834205
  85    0.0035979762982657
  86    0.00086852998755611
  87    -0.0075029648673823
  88    0.0043989062360888
  89    -0.0054989366346073
  90     0.022175155950151
  91    -0.012853105961917
  92     0.014813999684362
  93    0.0060736022662456
  94    -0.0058184402654954
  95    -0.017549040977259
  96    0.0021148697184616
  97    0.00011910252995803
  98    -0.0011828413012936
  99    0.0020610607236073
 100     0.025616049480247
 101    -0.0011253929288966
 102    -0.0026361219808348
 103    0.0015162489633701
 104    -0.0023323591407272
 105    -0.0086303141773825
 106    -0.0089795928921999
 107     0.027948173959231
 108    0.0035519639826098
 109    -0.0019829635147385
 110    -0.0018388023992665
 111    -0.0021120525981411
 112    -0.0024370468247619
 113    -0.0022225800585804
 114    -0.002584629127316
 115    0.0065510593272973
 116    0.0066354850655295
 117    0.0072493470396376
 118    0.0057271121649389
 119    0.0045360761167303
 120    0.00077377012129303
 121    0.0010448246003519
 122    -0.0026717065599575
 123    0.00054114980951276
 124    -0.0009579675081148
 125    0.00042814190939661
 126    -0.0016650360128355
 127    0.0024050602693223
 128    -0.0005154009038051
 129     0.001752310360452
 130    -0.0012054464692553
 131    -0.0048401116239999
 132    -0.0051440804887594
 133     0.018457966445286
 134    -0.0077038378501869
 135    0.0001002941576014
 136    -0.00094871240646439
 137    -0.0011404478097783
 138    0.00010756413494075
 139    -0.0011730951728741
 140    -0.0013239552299521
 141    -0.00076816572596194
 142    0.0028369627627769
 143    0.0052979615553684
 144     0.002856875960424
 145    0.0019393772022465
 146    -0.0066807767611192
 147    0.0012675201470313
 148    0.00019457356084304
 149    -0.001925478981861
 150    0.00093207157468744
 151    0.00010836436132871
 152    -0.0022577076628765
 153    0.00059057685577716
 154    0.0021139280533976
 155    -0.0014937028756103
 156    2.597310866098e-05
 157    -0.012108134870664
 158    -0.012269917606897
 159     0.030909400364272
 160     0.038653929140229
 161    -0.00041142052886089
 162    -0.0025277695078518
 163    -0.0081093102175912
 164    -0.00047401655200872
 165    -0.0030737123729942
 166    -0.010150887460799
 167     0.002240385897472
 168     0.009013874754387
 169      0.02174212418426
 170    -0.0061606030236199
 171    0.0014833253631399
 172     0.057500516366132
 173     0.002518615532898
 174    -0.0017193157445813
 175    -0.00062411396850674
 176    -0.00025587869329931
 177    0.0015299790887225
 178    -0.0019550628088174
 179     0.002057118454862
 180    0.00062034207213059
 181    0.0006447126136208
 182    -0.0025360138649285
 183    -0.0027991209731902
 184    -0.0014703121225891
 185     0.039493496750714
 186    -0.090474299573996
 187     0.011294715991667
 188    -0.020855094694398
 189     0.027044863722777
 190     0.011683528093012
 191    -0.021490570737602
 192     0.027577533044159
 193    -0.012638253237425
 194     0.036311978543306
 195     -0.08560872691703
 196     -0.17155586001362
 197      0.23448534916454
 198     -0.12798965635467
 199    -0.008854592895951
 200    0.0080903433840279
 201    -0.0069683929467933
 202    0.00036718106894504
 203    0.0041052056984211
 204    0.0047836440194089
 205    -0.0093435423880402
 206    0.0034399418574071
 207    0.0057036734832427
 208    6.4580515360694e-05
 209    -0.016730559083287
 210    -0.016747383659007
 211      0.03222894638212
 212     0.081587443023333
 213    0.0058752503172997
 214    -0.0070576582701758
 215    0.0018911518843694
 216    0.0074611287055818
 217    -0.0084343235742865
 218    0.0022425695176491
 219     -0.01341404045388
 220     0.029891187156463
 221    -0.0086476295361193
 222    -0.068586126432452
 223    -0.023614890583391
 224     0.016704725864591
 225    -0.00017148317646989
 226    -0.0068976705307361
 227    -0.0046202792395236
 228    -0.0029044682533315
 229    0.0035026537297862
 230    -0.00090217067841324
 231     0.010677037627718
 232    0.0054676332034533
 233     0.006486138844948
 234    -0.0030587828731691
 235    -0.029816340692817
 236    -0.030673098699927
 237     0.085964766030481
 238    0.0063094183454421
 239     0.014772681263032
 240    -0.022924092184881
 241    -0.005384022935903
 242     0.018410475818302
 243    -0.028134440021772
 244    -0.0064719443250458
 245    -0.040962940559026
 246     0.074980260196755
 247      0.01858691215961
 248    -0.092255499866113
 249      0.10307042543248
 250     0.033215453868413
 251    0.0072936821936038
 252    -0.0089332655348681
 253    -0.0026501175686792
 254     0.016392521141916
 255    -0.008234419997091
 256    -0.0070089842265065
 257    0.0052608904996035
 258    0.0026071273844158
 259    -0.018202659032383
 260     0.011833998202252
 261    -0.032112570169313
 262    -0.032568876468051
 263     0.076307871581145
 264      0.10057349942624
 265    0.0094728700585803
 266    -0.0064816671588117
 267    0.0055132937114674
 268     0.011793254834048
 269    -0.0079533262047723
 270    0.0074100788874187
 271    -0.027190890768758
 272     0.020676933403576
 273    -0.0046619101264177
 274    -0.046800065191305
 275     0.017156360931352
 276    -0.098759407031496
 277    0.00010113495229289
 278    -0.0042412981656202
 279    0.0074173418602182
 280    -0.0027935073921524
 281    -0.0095413965338135
 282    0.00054959583501716
 283    0.0068811502579584
 284    -0.010365342964032
 285    0.0043440514120975
 286    0.0090963341980531
 287    -0.023556503398371
 288    -0.024265464743756
 289     0.071244522550367
 290    -0.013505314925802
 291      0.01148773218593
 292    -0.0098036509099659
 293    -0.007756973331782
 294     0.014144801840482
 295    -0.012309787564882
 296    -0.0097560049928519
 297    -0.036041830462317
 298     0.025573212193687
 299     0.019861585592803
 300    -0.070950230524711
 301     0.060351467583236
 302     0.055139306594116
 303    0.0064925469543683
 304    0.0012261504445386
 305     0.010835739726496
 306    -0.014850831403502
 307    -0.0062584961084649
 308    -0.0064816510172662
 309    0.00069214551958717
 310    -0.011088159431249
 311       0.0183985743938
 312     0.008307856293662
 313    -0.017161158088544
 314    -0.016968638365802
 315     0.025837995174979
 316      0.11846770492819
 317    0.0040132937348159
 318    -0.0085638435679304
 319    -0.0026371381270631
 320    0.0048095898746644
 321     -0.01092119441737
 322    -0.003419287154568
 323     -0.01567055097542
 324     0.017992280710123
 325    0.0048340135453414
 326    -0.0021297490688419
 327      0.11234518175263
 328     0.036007892013625
 329    0.00055902126611147
 330    0.00044855151837956
 331    0.0076789106956173
 332    -0.0027630595011438
 333    0.0011325591118777
 334    -0.0036662240373117
 335    0.00066700475401727
 336    -0.010064769351369
 337    -9.9755350638193e-05
 338    -0.001458912420886
 339    -0.0010469219343037
 340    -0.0019788344657219
 341     0.051404689068475
 342    -0.0072416933898141
 343    -0.0081413990975742
 344    -0.0091718662088561
 345    -0.023550408381105
 346    -0.010381393338308
 347    -0.023375426096638
 348    0.00016939310788826
 349    -9.903101037309e-05
 350    0.00034949876559492
 351    -0.00047048736758261
 352    9.1042283714515e-05
 353     0.015208206572929
 354     0.025932867645975
 355       0.1690718961963
 356    0.0057744138224858
 357    -0.012595174735186
 358    -0.014760567162552
 359    -0.012100854823326
 360     0.019120377250575
 361     0.026891022196735
 362    -3.7213644097439e-05
 363    0.00020028550367653
 364    -0.0003199565120559
 365    0.00028040378789418
 366    -9.775488685394e-05
 367    -0.009532024415889
 368     -0.12763969628852
 369    -0.00014015295041963
 370    -0.0010749694042794
 371    -0.0012226595866692
 372    -0.004205688028725
 373    -0.053824336282565
 374    0.00028401737577015
 375    0.00071038620330129
 376    0.00072081652137238
 377    -0.0058554558115238
 378    -0.069795565506044
 379    -0.00078049925304303
 380    -0.00082664630947511
 381    -0.00043957616993821
 382    0.0024485913500799
 383    -0.028049943174007
 384    0.00012844806210871
 385    -0.00034095869274085
 386    -0.00056729433422694
 387    0.0018747284367331
 388    -0.0075422205133352
 389    -0.00058428801503976
 390    -0.00032635955961806
 391    -1.2705013468865e-06
 392    -0.0025334097967174
 393    -0.038047091774048
 394    -0.00015326133310159
 395    -0.00031289711685019
 396    -0.00055871699478226
 397    -0.0093738697217909
 398    0.0057231735213401
 399      0.25870719496986
 400    -0.028655178976559
 401    -0.0020681107476486
 402    0.0065342845869649
 403     -0.10131624413087
 404    -0.018066904932875
 405     0.014077158546752
 406    -0.00046033734097159
 407    0.00015086960768425
 408    -0.00086107372965596
 409    0.0001522267746279
 410    0.00029438345530787
 411     0.026730345006812
 412     0.035678396165228
 413      0.37431023228808
 414    -0.012954404242911
 415    -0.030101203099106
 416    -0.019319850488345
 417     0.027736404079338
 418     0.078364591290154
 419     0.070289850582797
 420    0.00077857028088097
 421    0.00021067002677591
 422    0.00081562127725839
 423    4.3649653636665e-06
 424    0.00039364649384512
 425    -0.015224580600696
 426    -0.067084378916276
 427    -0.00070595567588434
 428    -9.3194712289826e-05
 429    -0.00037802155733003
 430    -0.010344229131105
 431     -0.11702668907232
 432    0.00015177756125043
 433    -0.0010954591765082
 434    -0.00065661879278089
 435    -0.019324424003833
 436     -0.36625284002388
 437    0.0022461755369952
 438    0.0029216432846337
 439    0.0046949980890623
 440    -0.003780703836717
 441    -0.066788488217507
 442    -0.00062022748689591
 443    -6.7927563355172e-05
 444    5.697538412627e-05
 445    0.0034265731287272
 446     -0.15874758576443
 447    -0.0010396789754771
 448    0.00025122320707822
 449    -0.00044420424365679
 450    0.0064171035713071
 451     -0.14875096090957
 452    -0.00032087572463763
 453    -0.0014867528656422
 454    0.0012244851587583
 455     -0.07748967044299
 456      0.10072150809087
 457       1.7083310397275
 458    -0.045635715963444
 459     0.068676675985567
 460     0.027658573047397
 461     -0.21903511350076
 462      0.35026079600556
 463       0.1380858474761
 464    -0.00048543743396826
 465    -0.0017156913311079
 466    0.0028179802644121
 467    -0.001864115758418
 468    -0.0031627413796189
 469     0.061040979404303
 470     0.097873318870518
 471      0.77380220568954
 472    -0.015745742812559
 473     0.042117972361737
 474     0.030974233139933
 475       0.0792703358901
 476     -0.15752007325188
 477     -0.10646298723828
 478    -0.001326352656858
 479    -0.0018622628636116
 480    0.0036710499231767
 481    -0.0015421026200592
 482    -0.0037624225687385
 483    -0.043199818344516
 484      -0.4750480497789
 485    -3.7577009552192e-05
 486    -0.0042192214077037
 487    -0.0029248444034533
 488    -0.046634252046769
 489     -0.40374468963517
 490    0.0040118253794465
 491    -0.0013376942002326
 492    -0.003175045575996
 493    -0.045633584782406
 494     -0.36921462448811
 495    0.0032690492416926
 496    -0.0040922668581805
 497    -0.001542289655825
 498    -0.0074654001610197
 499     -0.90082242376467
 500    -0.0028230168542379
 501    0.0032651705662771
 502    -0.0010346088806011
 503    -0.0086092514547859
 504      -0.7331136369301
 505    0.00033314975541996
 506     0.001487259307087
 507    0.0018881381651919
 508    -0.0039337982418984
 509     -0.76813927688035
 510    -0.0011361813573369
 511    0.0003778275094077
 512    0.0019498783960835
 513    0.0012042123431513
 514    0.00018424731181137
 515     -0.04160149199411
 516    -0.0031024008960963
 517    -0.0077099792727244
 518    -0.0066437361330331
 519     -0.02514108750742
 520    -0.027608107638077
 521    -0.031470833938287
 522    -0.00040721612701504
 523    -0.0004212165119107
 524    -1.9782843907366e-05
 525    -0.00036983029873656
 526    -5.8571792477366e-05
 527    0.0068852991774928
 528     0.010210000394215
 529     0.091956853478378
 530    -0.0027676972722871
 531    -0.0065044280934323
 532    0.0002344833441381
 533     0.020122599529245
 534     0.015797378397094
 535    -0.00055888898646397
 536    -4.5132638291016e-05
 537    -2.4311408461309e-06
 538    0.00021466099762507
 539    -0.00022864001969277
 540    0.00042019163769757
 541    -0.00092761607826385
 542    -0.032315614331681
 543    -0.00028804483863624
 544    -0.0002551292556512
 545    -0.00010188983592899
 546    -0.00030816489309278
 547    -0.014578292927156
 548    0.00014697607710226
 549    7.8717859083974e-05
 550    -4.6841216311724e-05
 551    -0.0048813306889664
 552    -0.075447887445024
 553    0.00052613557630177
 554    0.00092741471402206
 555    1.3439450775924e-05
 556    0.0011488126492895
 557    -0.030350184658513
 558    0.00045695152771177
 559    -0.00078863035696333
 560    0.00010862661428882
 561    -0.0015921080047934
 562     0.082503231400359
 563    -0.00098828136011376
 564    -2.2556153478382e-05
 565    -0.00095034928851419
 566    0.00072663429600172
 567    -0.0064347617192482
 568    0.00028725868799003
 569    -0.00014633162078054
 570    0.00027767616022207
 571    -0.0029553481137383
 572      0.01175073235454
 573    -0.022076826471316
 574    -0.0042919972143882
 575     0.021984006829581
 576    -0.0078889916997457
 577    -0.010904064123409
 578     0.051211930096432
 579    -0.017431810199633
 580    0.00055180463664686
 581    -4.4078141479522e-06
 582    0.00048475537013254
 583    -0.001555193902887
 584    0.00032441132097437
 585     -0.01486596377636
 586     -0.02041509206367
 587     -0.20879882856218
 588     0.042945418780469
 589    -0.023598677879651
 590     0.010397204115519
 591     -0.10179404541598
 592     0.049610827058315
 593    -0.023505163099517
 594    0.00012092597293788
 595    -0.0009123049475501
 596    0.00047186124269075
 597    0.00060300052571911
 598    0.00074237246874539
 599    -0.0068864494064579
 600    -0.098318864560506
 601    0.00094299902059238
 602    -0.00091335213076406
 603    -0.00036040827223358
 604     0.013966368837241
 605      0.14045339686019
 606    -7.3947308329112e-05
 607    -0.00061848343519621
 608    -0.00066633959363474
 609     0.016763835377159
 610      0.27061548246067
 611    -0.00064334346318997
 612    0.0015185960981874
 613    -5.1784803129946e-06
 614    -0.0011138984509381
 615    -0.053305669948968
 616     0.001170410574328
 617    -9.5301102473564e-05
 618    0.00054220271653214
 619    -0.0018897920260652
 620     0.070783226132775
 621    -2.2943957646352e-05
 622    0.00050911641335724
 623    -0.00035785994611861
 624    0.0011524984548622
 625      0.01445897866305
 626    0.00099079901960344
 627    -0.00011420156757312
 628    -0.00058219647574085
 629    -0.0061320812236791
 630    0.0051679206533992
 631       0.1562820039268
 632     0.010501088791551
 633    0.0020012379873336
 634    -0.017569268127656
 635     0.032984585108672
 636    0.0055987856731007
 637    -0.055444716874494
 638    0.00071465050583361
 639    -0.00060647712541719
 640    0.00049708969818663
 641    -0.00033759516834192
 642    -1.3794851270509e-06
 643     0.019697291081264
 644     0.031912900396803
 645      0.23440191587497
 646    -0.0065008845354752
 647    -0.018928820570406
 648     -0.01708159825826
 649     0.019204488568438
 650     0.047156133460986
 651      0.04150227025233
 652    0.00016170064619178
 653    1.5881567319719e-05
 654    6.0167943787475e-05
 655    0.00017252058811364
 656    -0.0001202548169045
 657    -0.0094324131954241
 658     -0.01269190609117
 659    0.00062945211897028
 660    0.00079679659957777
 661    -0.00076667527747209
 662    -0.014567655068802
 663     -0.19690435005449
 664    0.00055046122269465
 665    -0.00021328787134963
 666    0.0006958890050469
 667    -0.011005354672115
 668     -0.13476961250467
 669    -0.00058620539247729
 670    5.3589434815345e-05
 671    0.00016162146120803
 672    -0.00086448026138757
 673    -0.057351873266422
 674    -0.00013465018790576
 675    -0.00016024332492413
 676    -0.00075808337340305
 677    0.0005308891850649
 678     -0.10870808803222
 679    0.00027981680079374
 680    1.8305984588095e-05
 681    -0.00087332738281451
 682    -0.00026633692633507
 683    -0.054435168358627
 684    0.00082104385413127
 685    -0.00016280490989164
 686    -0.00045727880261044
 687    -0.011165261240914
 688    0.0093702557882727
 689       0.2776182074776
 690     0.026892696916667
 691     0.010486191992765
 692    -0.018338393142075
 693     0.077835387252975
 694     0.033943770299152
 695     -0.02733531217429
 696    -0.00068818727664504
 697    -0.0010490879565188
 698    0.00018733185156522
 699    -2.034364478596e-06
 700    0.00017671924295132
 701     0.026918120696968
 702     0.046723870969028
 703      0.29713142496229
 704      0.01837903784834
 705    -0.014471841072771
 706    -0.024366401680492
 707    -0.043741790249504
 708     0.039959673130711
 709     0.043304865135641
 710    -7.813984054192e-05
 711    0.00031451844572438
 712    -5.9247585874887e-05
 713    0.00015619666059256
 714    7.1080492558712e-05
 715    -0.016416313116762
 716     -0.20640378056551
 717    -0.00028211399058117
 718    0.00023646905640344
 719    -0.00031510574672703
 720    -0.0091527611704148
 721    -0.074615394769906
 722    0.0012361666062013
 723    0.0014541150931674
 724    7.6177486083098e-05
 725    -0.011638819421329
 726     -0.19019988773359
 727    -0.00016745062075034
 728    -0.00043935347613739
 729    -0.0005812479589707
 730    -0.00089539864016427
 731    -0.062604249618101
 732    0.00081665917394037
 733    -0.00062767161594247
 734    0.0015913682930416
 735    0.00096655198284143
 736     -0.12500522401141
 737    0.0010770415631835
 738    -3.9611830938242e-05
 739    -0.0019474251906212
 740    0.0058356840234906
 741      -0.1885980737108
 742     0.001339808167569
 743    0.00062609509163182
 744    -0.0009691664900324
