[Molden Format]
made by pyscf v[2.13.1]
[Atoms] (AU)
Pb   1   22    -0.33927764895216    -0.39208415577701    -0.34592948491063
I   2   25     5.40814483493064    -0.03304186128802    -0.01864592767108
I   3   25     0.02535634513941     5.31934660433733     0.12533230575953
I   4   25     0.04042691098282     0.18517426294613     5.29132763508840
I   5   25    -5.80371553540747    -0.08291740289367    -0.01614582000828
I   6   25     0.24026922810782    -5.88552933824439     0.34783054939194
I   7   25     0.19626884502345     0.34681765618918    -5.86159217742452
Pb   8   22    10.86899413147540    -0.43669492039962    -0.42305487723250
I   9   25    16.30559635211587    -0.10736667949329    -0.00595452701850
I   10   25    10.82389392778653     5.16952155827731    -0.95746942525950
I   11   25    10.95483494068377    -1.06463012460522     5.21364855301203
I   12   25    10.91674373119091    -6.23214857319049    -0.81369150279810
I   13   25    10.92981118734228    -0.79593752585781    -6.14014725681604
Pb   14   22    21.96702306924808    -0.23685071354849    -0.24657713391162
I   15   25    27.49510126240037     0.41493094462300     0.35912733216459
I   16   25    21.52236484295955     5.36763288627221     0.30475046293023
I   17   25    21.56452841225085     0.13160241704084     5.46225525278144
I   18   25    21.50408174270438    -5.83098806283719     0.38350668889761
I   19   25    21.47464169940979     0.32722119627744    -5.70420444741400
C   20   6     3.54187588074980    -6.03162784438676    -6.10613407629999
N   21   7     5.60309087166690    -4.67015954013487    -4.72201173526681
H   22   1     6.78744459489393    -3.63455749852910    -5.93814687245678
H   23   1     4.82040410539454    -3.35793182951077    -3.41903045457020
H   24   1     6.76044040857390    -5.89995172802707    -3.67514881568475
H   25   1     2.29648778315157    -4.66451870765304    -7.11857563452309
H   26   1     2.27566867043723    -7.03744402281714    -4.75316198070414
H   27   1     4.28887516915975    -7.40356901082100    -7.47464916927039
C   28   6     6.76339971968497    -6.77909200542335     5.29601037642507
N   29   7     4.99766419533099    -4.56556319914019     5.21864120943313
H   30   1     3.84619926557589    -4.61761381551521     3.59438003139472
H   31   1     3.80917197189116    -4.53824909773573     6.82069999523403
H   32   1     6.01888353140270    -2.85762494830604     5.18959044972019
H   33   1     5.72658069445497    -8.58169797619372     5.33247831117693
H   34   1     8.00435829924722    -6.69475919766239     7.00025232295958
H   35   1     8.04375719921828    -6.78149384732768     3.61961921351441
C   36   6    16.97360130906674    -5.61695390251671    -7.09381455311292
N   37   7    16.58870000228920    -4.83491909175732    -4.39700529800736
H   38   1    14.86370130400248    -5.52488266627565    -3.65130614117112
H   39   1    18.08590166489023    -5.44970558158820    -3.22988398731024
H   40   1    16.52555291411074    -2.84375057909948    -4.25164000560132
H   41   1    17.08942640269359    -7.68820333915524    -7.28521357391337
H   42   1    18.75083392716257    -4.79107366621516    -7.85208416812977
H   43   1    15.40198412140646    -4.92692040813177    -8.29575973683353
C   44   6    15.08742975934199    -6.82851023330685     5.30148869246019
N   45   7    16.81730584075622    -4.58703993654588     5.41373275508098
H   46   1    18.05875574911086    -4.56010189064020     3.85715967709836
H   47   1    15.76640835589821    -2.89385099811395     5.38279226924347
H   48   1    17.90662523717887    -4.59860128097596     7.07771030707937
H   49   1    13.86741501441828    -6.75439895415366     3.58145430470269
H   50   1    13.78225639634089    -6.85417271407845     6.96111420519371
H   51   1    16.15001709000655    -8.61531242449748     5.27453363901939
C   52   6    14.99916254178968     5.31638351377401    -6.72107174422083
N   53   7    16.73703027498469     5.29710263812507    -4.48354908533407
H   54   1    17.94143777184561     3.71208162306325    -4.52626067520149
H   55   1    17.86887417838843     6.93738302452142    -4.43575413219157
H   56   1    15.69384287271492     5.22727347837014    -2.79015794620682
H   57   1    16.05738838455874     5.38042444240939    -8.50974476427478
H   58   1    13.70445259234029     6.98025146165718    -6.65612374704566
H   59   1    13.77121283686893     3.59977519948035    -6.73646167377929
C   60   6    14.67895789861275     4.92041597081102     4.66162931640858
N   61   7    17.07854346994221     5.58549563172107     5.99500495209269
H   62   1    18.48366822712381     4.24173217153023     5.60999971037831
H   63   1    17.74623095290416     7.35433219664546     5.40931835485399
H   64   1    16.80633220115087     5.64581946906944     7.94649866476529
H   65   1    14.93508192890567     4.97270469267773     2.58026795527750
H   66   1    13.12433690771681     6.24529917729134     5.14680516053391
H   67   1    14.02600272051791     2.99001727086694     5.17444807428405
C   68   6    27.65551066448407    -5.90578909202585     6.97816709374178
N   69   7    26.36055694036462    -4.40347572025787     4.95682721377914
H   70   1    25.17972377690765    -5.52812732603152     3.81952578132765
H   71   1    25.19451088383237    -2.98895146533269     5.77704772033761
H   72   1    27.63544744221957    -3.46775704269211     3.76764335057772
H   73   1    26.23813859228917    -6.81925813420098     8.24783250286231
H   74   1    28.79333744079819    -4.65150983301154     8.22953428479815
H   75   1    28.89392000350429    -7.37711473480321     6.19094687449660
C   76   6     6.69373118665063     5.25695729633481    -6.72029695650976
N   77   7     4.88895770001539     5.26859611953601    -4.53656346203262
H   78   1     3.75515415062047     6.90463407078271    -4.54338915279455
H   79   1     3.68454642370222     3.68040792348942    -4.59002759354881
H   80   1     5.88165728941516     5.22307261719524    -2.81130776099295
H   81   1     5.69030173231557     5.27574117401299    -8.54124838849740
H   82   1     7.93429670317897     3.54899636878717    -6.66377713785014
H   83   1     7.97532076761716     6.92954822000897    -6.64839287747006
C   84   6     7.13363297228363     4.61345641804117     5.15489507807318
N   85   7     4.58152004653602     5.79404202737582     5.40021932356421
H   86   1     3.41143186582333     5.25477655238706     3.89382036391493
H   87   1     3.70311487260219     5.23713973846650     7.08845340009753
H   88   1     4.70949418941769     7.76246768612452     5.39677246311301
H   89   1     7.00230078607860     2.51956806243035     5.18664058723975
H   90   1     8.41082138110605     5.19225307382970     6.71691623647291
H   91   1     8.06966534438607     5.15816241454255     3.35679799383603
C   92   6    -6.06383255700160     6.90008172054863    -5.88966972818331
N   93   7    -4.67192454433521     4.86936124010365    -4.49015745759167
H   94   1    -3.50009781558792     3.79008195858080    -5.68060176811818
H   95   1    -3.47854548913726     5.68126128253565    -3.09298466794225
H   96   1    -5.88678789584335     3.61847403948292    -3.54655484263423
H   97   1    -4.70880443938222     8.20692749116997    -6.84169107302570
H   98   1    -7.15701644334900     8.11058736361352    -4.55689880485906
H   99   1    -7.36017522982261     6.12331546622454    -7.31630523784083
[GTO]
1 0
 s    6 1.00
          55.727520333  0.0030229398792401
          20.302912827   -0.14617744364668
           14.55862875    0.38247858446898
          6.5370530973   -0.68495343489743
          1.5933900686    0.97658689205599
         0.83051419711    0.33195675186838
 s    2 1.00
          8.0719473648  -0.064432974600192
           1.416573749     1.0374469808883
 s    1 1.00
          0.2041893337                   1
 s    1 1.00
        0.077159007761                   1
 p    4 1.00
          9.5531412199    0.55073462105566
          7.5327685129   -0.97604901828593
          1.1185539567    0.86371664043596
         0.53739855255    0.25918281328032
 p    1 1.00
          2.1359869828                   1
 p    1 1.00
         0.20027494801                   1
 p    1 1.00
        0.063408011513                   1
 d    5 1.00
          13.494505735   0.011860978800904
          7.0609770411  -0.068419120498775
          2.1581835375    0.34830169166445
          1.0148541418    0.49738884511814
          0.4463267292    0.30426691151759
 d    1 1.00
                 0.175                   1

2 0
 s    6 1.00
          445.90489176  0.0022025754561624
          23.336842412   -0.16476917790558
          19.583446104    0.40052364264037
          8.5112089186   -0.83034405336891
          2.1996161861    0.91034903894187
          1.0668970454    0.46345033669896
 s    2 1.00
          11.720547572  -0.046972984527237
          1.7625986449     1.0252380966471
 s    1 1.00
         0.28697476318                   1
 s    1 1.00
         0.11227609607                   1
 p    4 1.00
          20.499027254   0.084562108576311
          10.558754576   -0.42051679185026
          1.5015895485     0.9157047730546
         0.64597173095    0.18397852281308
 p    1 1.00
          3.0288656771                   1
 p    1 1.00
         0.34506591841                   1
 p    1 1.00
         0.11134513813                   1
 d    5 1.00
           51.23535492  0.0041015169444301
          15.616239482  -0.0051611249493146
          4.5266002139    0.29635196981753
          2.0529808766    0.51995196518892
         0.87640281623    0.31750716843876
 d    1 1.00
                 0.309                   1

3 0
 s    6 1.00
          445.90489176  0.0022025754561624
          23.336842412   -0.16476917790558
          19.583446104    0.40052364264037
          8.5112089186   -0.83034405336891
          2.1996161861    0.91034903894187
          1.0668970454    0.46345033669896
 s    2 1.00
          11.720547572  -0.046972984527237
          1.7625986449     1.0252380966471
 s    1 1.00
         0.28697476318                   1
 s    1 1.00
         0.11227609607                   1
 p    4 1.00
          20.499027254   0.084562108576311
          10.558754576   -0.42051679185026
          1.5015895485     0.9157047730546
         0.64597173095    0.18397852281308
 p    1 1.00
          3.0288656771                   1
 p    1 1.00
         0.34506591841                   1
 p    1 1.00
         0.11134513813                   1
 d    5 1.00
           51.23535492  0.0041015169444301
          15.616239482  -0.0051611249493146
          4.5266002139    0.29635196981753
          2.0529808766    0.51995196518892
         0.87640281623    0.31750716843876
 d    1 1.00
                 0.309                   1

4 0
 s    6 1.00
          445.90489176  0.0022025754561624
          23.336842412   -0.16476917790558
          19.583446104    0.40052364264037
          8.5112089186   -0.83034405336891
          2.1996161861    0.91034903894187
          1.0668970454    0.46345033669896
 s    2 1.00
          11.720547572  -0.046972984527237
          1.7625986449     1.0252380966471
 s    1 1.00
         0.28697476318                   1
 s    1 1.00
         0.11227609607                   1
 p    4 1.00
          20.499027254   0.084562108576311
          10.558754576   -0.42051679185026
          1.5015895485     0.9157047730546
         0.64597173095    0.18397852281308
 p    1 1.00
          3.0288656771                   1
 p    1 1.00
         0.34506591841                   1
 p    1 1.00
         0.11134513813                   1
 d    5 1.00
           51.23535492  0.0041015169444301
          15.616239482  -0.0051611249493146
          4.5266002139    0.29635196981753
          2.0529808766    0.51995196518892
         0.87640281623    0.31750716843876
 d    1 1.00
                 0.309                   1

5 0
 s    6 1.00
          445.90489176  0.0022025754561624
          23.336842412   -0.16476917790558
          19.583446104    0.40052364264037
          8.5112089186   -0.83034405336891
          2.1996161861    0.91034903894187
          1.0668970454    0.46345033669896
 s    2 1.00
          11.720547572  -0.046972984527237
          1.7625986449     1.0252380966471
 s    1 1.00
         0.28697476318                   1
 s    1 1.00
         0.11227609607                   1
 p    4 1.00
          20.499027254   0.084562108576311
          10.558754576   -0.42051679185026
          1.5015895485     0.9157047730546
         0.64597173095    0.18397852281308
 p    1 1.00
          3.0288656771                   1
 p    1 1.00
         0.34506591841                   1
 p    1 1.00
         0.11134513813                   1
 d    5 1.00
           51.23535492  0.0041015169444301
          15.616239482  -0.0051611249493146
          4.5266002139    0.29635196981753
          2.0529808766    0.51995196518892
         0.87640281623    0.31750716843876
 d    1 1.00
                 0.309                   1

6 0
 s    6 1.00
          445.90489176  0.0022025754561624
          23.336842412   -0.16476917790558
          19.583446104    0.40052364264037
          8.5112089186   -0.83034405336891
          2.1996161861    0.91034903894187
          1.0668970454    0.46345033669896
 s    2 1.00
          11.720547572  -0.046972984527237
          1.7625986449     1.0252380966471
 s    1 1.00
         0.28697476318                   1
 s    1 1.00
         0.11227609607                   1
 p    4 1.00
          20.499027254   0.084562108576311
          10.558754576   -0.42051679185026
          1.5015895485     0.9157047730546
         0.64597173095    0.18397852281308
 p    1 1.00
          3.0288656771                   1
 p    1 1.00
         0.34506591841                   1
 p    1 1.00
         0.11134513813                   1
 d    5 1.00
           51.23535492  0.0041015169444301
          15.616239482  -0.0051611249493146
          4.5266002139    0.29635196981753
          2.0529808766    0.51995196518892
         0.87640281623    0.31750716843876
 d    1 1.00
                 0.309                   1

7 0
 s    6 1.00
          445.90489176  0.0022025754561624
          23.336842412   -0.16476917790558
          19.583446104    0.40052364264037
          8.5112089186   -0.83034405336891
          2.1996161861    0.91034903894187
          1.0668970454    0.46345033669896
 s    2 1.00
          11.720547572  -0.046972984527237
          1.7625986449     1.0252380966471
 s    1 1.00
         0.28697476318                   1
 s    1 1.00
         0.11227609607                   1
 p    4 1.00
          20.499027254   0.084562108576311
          10.558754576   -0.42051679185026
          1.5015895485     0.9157047730546
         0.64597173095    0.18397852281308
 p    1 1.00
          3.0288656771                   1
 p    1 1.00
         0.34506591841                   1
 p    1 1.00
         0.11134513813                   1
 d    5 1.00
           51.23535492  0.0041015169444301
          15.616239482  -0.0051611249493146
          4.5266002139    0.29635196981753
          2.0529808766    0.51995196518892
         0.87640281623    0.31750716843876
 d    1 1.00
                 0.309                   1

8 0
 s    6 1.00
          55.727520333  0.0030229398792401
          20.302912827   -0.14617744364668
           14.55862875    0.38247858446898
          6.5370530973   -0.68495343489743
          1.5933900686    0.97658689205599
         0.83051419711    0.33195675186838
 s    2 1.00
          8.0719473648  -0.064432974600192
           1.416573749     1.0374469808883
 s    1 1.00
          0.2041893337                   1
 s    1 1.00
        0.077159007761                   1
 p    4 1.00
          9.5531412199    0.55073462105566
          7.5327685129   -0.97604901828593
          1.1185539567    0.86371664043596
         0.53739855255    0.25918281328032
 p    1 1.00
          2.1359869828                   1
 p    1 1.00
         0.20027494801                   1
 p    1 1.00
        0.063408011513                   1
 d    5 1.00
          13.494505735   0.011860978800904
          7.0609770411  -0.068419120498775
          2.1581835375    0.34830169166445
          1.0148541418    0.49738884511814
          0.4463267292    0.30426691151759
 d    1 1.00
                 0.175                   1

9 0
 s    6 1.00
          445.90489176  0.0022025754561624
          23.336842412   -0.16476917790558
          19.583446104    0.40052364264037
          8.5112089186   -0.83034405336891
          2.1996161861    0.91034903894187
          1.0668970454    0.46345033669896
 s    2 1.00
          11.720547572  -0.046972984527237
          1.7625986449     1.0252380966471
 s    1 1.00
         0.28697476318                   1
 s    1 1.00
         0.11227609607                   1
 p    4 1.00
          20.499027254   0.084562108576311
          10.558754576   -0.42051679185026
          1.5015895485     0.9157047730546
         0.64597173095    0.18397852281308
 p    1 1.00
          3.0288656771                   1
 p    1 1.00
         0.34506591841                   1
 p    1 1.00
         0.11134513813                   1
 d    5 1.00
           51.23535492  0.0041015169444301
          15.616239482  -0.0051611249493146
          4.5266002139    0.29635196981753
          2.0529808766    0.51995196518892
         0.87640281623    0.31750716843876
 d    1 1.00
                 0.309                   1

10 0
 s    6 1.00
          445.90489176  0.0022025754561624
          23.336842412   -0.16476917790558
          19.583446104    0.40052364264037
          8.5112089186   -0.83034405336891
          2.1996161861    0.91034903894187
          1.0668970454    0.46345033669896
 s    2 1.00
          11.720547572  -0.046972984527237
          1.7625986449     1.0252380966471
 s    1 1.00
         0.28697476318                   1
 s    1 1.00
         0.11227609607                   1
 p    4 1.00
          20.499027254   0.084562108576311
          10.558754576   -0.42051679185026
          1.5015895485     0.9157047730546
         0.64597173095    0.18397852281308
 p    1 1.00
          3.0288656771                   1
 p    1 1.00
         0.34506591841                   1
 p    1 1.00
         0.11134513813                   1
 d    5 1.00
           51.23535492  0.0041015169444301
          15.616239482  -0.0051611249493146
          4.5266002139    0.29635196981753
          2.0529808766    0.51995196518892
         0.87640281623    0.31750716843876
 d    1 1.00
                 0.309                   1

11 0
 s    6 1.00
          445.90489176  0.0022025754561624
          23.336842412   -0.16476917790558
          19.583446104    0.40052364264037
          8.5112089186   -0.83034405336891
          2.1996161861    0.91034903894187
          1.0668970454    0.46345033669896
 s    2 1.00
          11.720547572  -0.046972984527237
          1.7625986449     1.0252380966471
 s    1 1.00
         0.28697476318                   1
 s    1 1.00
         0.11227609607                   1
 p    4 1.00
          20.499027254   0.084562108576311
          10.558754576   -0.42051679185026
          1.5015895485     0.9157047730546
         0.64597173095    0.18397852281308
 p    1 1.00
          3.0288656771                   1
 p    1 1.00
         0.34506591841                   1
 p    1 1.00
         0.11134513813                   1
 d    5 1.00
           51.23535492  0.0041015169444301
          15.616239482  -0.0051611249493146
          4.5266002139    0.29635196981753
          2.0529808766    0.51995196518892
         0.87640281623    0.31750716843876
 d    1 1.00
                 0.309                   1

12 0
 s    6 1.00
          445.90489176  0.0022025754561624
          23.336842412   -0.16476917790558
          19.583446104    0.40052364264037
          8.5112089186   -0.83034405336891
          2.1996161861    0.91034903894187
          1.0668970454    0.46345033669896
 s    2 1.00
          11.720547572  -0.046972984527237
          1.7625986449     1.0252380966471
 s    1 1.00
         0.28697476318                   1
 s    1 1.00
         0.11227609607                   1
 p    4 1.00
          20.499027254   0.084562108576311
          10.558754576   -0.42051679185026
          1.5015895485     0.9157047730546
         0.64597173095    0.18397852281308
 p    1 1.00
          3.0288656771                   1
 p    1 1.00
         0.34506591841                   1
 p    1 1.00
         0.11134513813                   1
 d    5 1.00
           51.23535492  0.0041015169444301
          15.616239482  -0.0051611249493146
          4.5266002139    0.29635196981753
          2.0529808766    0.51995196518892
         0.87640281623    0.31750716843876
 d    1 1.00
                 0.309                   1

13 0
 s    6 1.00
          445.90489176  0.0022025754561624
          23.336842412   -0.16476917790558
          19.583446104    0.40052364264037
          8.5112089186   -0.83034405336891
          2.1996161861    0.91034903894187
          1.0668970454    0.46345033669896
 s    2 1.00
          11.720547572  -0.046972984527237
          1.7625986449     1.0252380966471
 s    1 1.00
         0.28697476318                   1
 s    1 1.00
         0.11227609607                   1
 p    4 1.00
          20.499027254   0.084562108576311
          10.558754576   -0.42051679185026
          1.5015895485     0.9157047730546
         0.64597173095    0.18397852281308
 p    1 1.00
          3.0288656771                   1
 p    1 1.00
         0.34506591841                   1
 p    1 1.00
         0.11134513813                   1
 d    5 1.00
           51.23535492  0.0041015169444301
          15.616239482  -0.0051611249493146
          4.5266002139    0.29635196981753
          2.0529808766    0.51995196518892
         0.87640281623    0.31750716843876
 d    1 1.00
                 0.309                   1

14 0
 s    6 1.00
          55.727520333  0.0030229398792401
          20.302912827   -0.14617744364668
           14.55862875    0.38247858446898
          6.5370530973   -0.68495343489743
          1.5933900686    0.97658689205599
         0.83051419711    0.33195675186838
 s    2 1.00
          8.0719473648  -0.064432974600192
           1.416573749     1.0374469808883
 s    1 1.00
          0.2041893337                   1
 s    1 1.00
        0.077159007761                   1
 p    4 1.00
          9.5531412199    0.55073462105566
          7.5327685129   -0.97604901828593
          1.1185539567    0.86371664043596
         0.53739855255    0.25918281328032
 p    1 1.00
          2.1359869828                   1
 p    1 1.00
         0.20027494801                   1
 p    1 1.00
        0.063408011513                   1
 d    5 1.00
          13.494505735   0.011860978800904
          7.0609770411  -0.068419120498775
          2.1581835375    0.34830169166445
          1.0148541418    0.49738884511814
          0.4463267292    0.30426691151759
 d    1 1.00
                 0.175                   1

15 0
 s    6 1.00
          445.90489176  0.0022025754561624
          23.336842412   -0.16476917790558
          19.583446104    0.40052364264037
          8.5112089186   -0.83034405336891
          2.1996161861    0.91034903894187
          1.0668970454    0.46345033669896
 s    2 1.00
          11.720547572  -0.046972984527237
          1.7625986449     1.0252380966471
 s    1 1.00
         0.28697476318                   1
 s    1 1.00
         0.11227609607                   1
 p    4 1.00
          20.499027254   0.084562108576311
          10.558754576   -0.42051679185026
          1.5015895485     0.9157047730546
         0.64597173095    0.18397852281308
 p    1 1.00
          3.0288656771                   1
 p    1 1.00
         0.34506591841                   1
 p    1 1.00
         0.11134513813                   1
 d    5 1.00
           51.23535492  0.0041015169444301
          15.616239482  -0.0051611249493146
          4.5266002139    0.29635196981753
          2.0529808766    0.51995196518892
         0.87640281623    0.31750716843876
 d    1 1.00
                 0.309                   1

16 0
 s    6 1.00
          445.90489176  0.0022025754561624
          23.336842412   -0.16476917790558
          19.583446104    0.40052364264037
          8.5112089186   -0.83034405336891
          2.1996161861    0.91034903894187
          1.0668970454    0.46345033669896
 s    2 1.00
          11.720547572  -0.046972984527237
          1.7625986449     1.0252380966471
 s    1 1.00
         0.28697476318                   1
 s    1 1.00
         0.11227609607                   1
 p    4 1.00
          20.499027254   0.084562108576311
          10.558754576   -0.42051679185026
          1.5015895485     0.9157047730546
         0.64597173095    0.18397852281308
 p    1 1.00
          3.0288656771                   1
 p    1 1.00
         0.34506591841                   1
 p    1 1.00
         0.11134513813                   1
 d    5 1.00
           51.23535492  0.0041015169444301
          15.616239482  -0.0051611249493146
          4.5266002139    0.29635196981753
          2.0529808766    0.51995196518892
         0.87640281623    0.31750716843876
 d    1 1.00
                 0.309                   1

17 0
 s    6 1.00
          445.90489176  0.0022025754561624
          23.336842412   -0.16476917790558
          19.583446104    0.40052364264037
          8.5112089186   -0.83034405336891
          2.1996161861    0.91034903894187
          1.0668970454    0.46345033669896
 s    2 1.00
          11.720547572  -0.046972984527237
          1.7625986449     1.0252380966471
 s    1 1.00
         0.28697476318                   1
 s    1 1.00
         0.11227609607                   1
 p    4 1.00
          20.499027254   0.084562108576311
          10.558754576   -0.42051679185026
          1.5015895485     0.9157047730546
         0.64597173095    0.18397852281308
 p    1 1.00
          3.0288656771                   1
 p    1 1.00
         0.34506591841                   1
 p    1 1.00
         0.11134513813                   1
 d    5 1.00
           51.23535492  0.0041015169444301
          15.616239482  -0.0051611249493146
          4.5266002139    0.29635196981753
          2.0529808766    0.51995196518892
         0.87640281623    0.31750716843876
 d    1 1.00
                 0.309                   1

18 0
 s    6 1.00
          445.90489176  0.0022025754561624
          23.336842412   -0.16476917790558
          19.583446104    0.40052364264037
          8.5112089186   -0.83034405336891
          2.1996161861    0.91034903894187
          1.0668970454    0.46345033669896
 s    2 1.00
          11.720547572  -0.046972984527237
          1.7625986449     1.0252380966471
 s    1 1.00
         0.28697476318                   1
 s    1 1.00
         0.11227609607                   1
 p    4 1.00
          20.499027254   0.084562108576311
          10.558754576   -0.42051679185026
          1.5015895485     0.9157047730546
         0.64597173095    0.18397852281308
 p    1 1.00
          3.0288656771                   1
 p    1 1.00
         0.34506591841                   1
 p    1 1.00
         0.11134513813                   1
 d    5 1.00
           51.23535492  0.0041015169444301
          15.616239482  -0.0051611249493146
          4.5266002139    0.29635196981753
          2.0529808766    0.51995196518892
         0.87640281623    0.31750716843876
 d    1 1.00
                 0.309                   1

19 0
 s    6 1.00
          445.90489176  0.0022025754561624
          23.336842412   -0.16476917790558
          19.583446104    0.40052364264037
          8.5112089186   -0.83034405336891
          2.1996161861    0.91034903894187
          1.0668970454    0.46345033669896
 s    2 1.00
          11.720547572  -0.046972984527237
          1.7625986449     1.0252380966471
 s    1 1.00
         0.28697476318                   1
 s    1 1.00
         0.11227609607                   1
 p    4 1.00
          20.499027254   0.084562108576311
          10.558754576   -0.42051679185026
          1.5015895485     0.9157047730546
         0.64597173095    0.18397852281308
 p    1 1.00
          3.0288656771                   1
 p    1 1.00
         0.34506591841                   1
 p    1 1.00
         0.11134513813                   1
 d    5 1.00
           51.23535492  0.0041015169444301
          15.616239482  -0.0051611249493146
          4.5266002139    0.29635196981753
          2.0529808766    0.51995196518892
         0.87640281623    0.31750716843876
 d    1 1.00
                 0.309                   1

20 0
 s    5 1.00
          1238.4016938  0.0055173650481097
          186.29004992   0.041088828555946
          42.251176346     0.1822538212649
          11.676557932    0.46828459437429
          3.5930506482    0.44575817336002
 s    1 1.00
         0.40245147363                   1
 s    1 1.00
         0.13090182668                   1
 p    3 1.00
          9.4680970621   0.056888332011037
          2.0103545142    0.31294059336471
         0.54771004707    0.76065016509135
 p    1 1.00
         0.15268613795                   1
 d    1 1.00
                   0.8                   1

21 0
 s    5 1.00
          1712.8415853  -0.0054477995804909
          257.64812677  -0.040627174632423
          58.458245853   -0.18111962250584
          16.198367905   -0.46843975563173
          5.0052600809   -0.44616846289231
 s    1 1.00
         0.58731856571                   1
 s    1 1.00
         0.18764592253                   1
 p    3 1.00
          13.571470233  -0.058848116969522
          2.9257372874   -0.32024624762471
         0.79927750754   -0.75328226520436
 p    1 1.00
         0.21954348034                   1
 d    1 1.00
                     1                   1

22 0
 s    3 1.00
             13.010701   0.033485484812989
             1.9622572    0.23472187088125
            0.44453796    0.81377028525955
 s    1 1.00
            0.12194962                   1
 p    1 1.00
                   0.8                   1

23 0
 s    3 1.00
             13.010701   0.033485484812989
             1.9622572    0.23472187088125
            0.44453796    0.81377028525955
 s    1 1.00
            0.12194962                   1
 p    1 1.00
                   0.8                   1

24 0
 s    3 1.00
             13.010701   0.033485484812989
             1.9622572    0.23472187088125
            0.44453796    0.81377028525955
 s    1 1.00
            0.12194962                   1
 p    1 1.00
                   0.8                   1

25 0
 s    3 1.00
             13.010701   0.033485484812989
             1.9622572    0.23472187088125
            0.44453796    0.81377028525955
 s    1 1.00
            0.12194962                   1
 p    1 1.00
                   0.8                   1

26 0
 s    3 1.00
             13.010701   0.033485484812989
             1.9622572    0.23472187088125
            0.44453796    0.81377028525955
 s    1 1.00
            0.12194962                   1
 p    1 1.00
                   0.8                   1

27 0
 s    3 1.00
             13.010701   0.033485484812989
             1.9622572    0.23472187088125
            0.44453796    0.81377028525955
 s    1 1.00
            0.12194962                   1
 p    1 1.00
                   0.8                   1

28 0
 s    5 1.00
          1238.4016938  0.0055173650481097
          186.29004992   0.041088828555946
          42.251176346     0.1822538212649
          11.676557932    0.46828459437429
          3.5930506482    0.44575817336002
 s    1 1.00
         0.40245147363                   1
 s    1 1.00
         0.13090182668                   1
 p    3 1.00
          9.4680970621   0.056888332011037
          2.0103545142    0.31294059336471
         0.54771004707    0.76065016509135
 p    1 1.00
         0.15268613795                   1
 d    1 1.00
                   0.8                   1

29 0
 s    5 1.00
          1712.8415853  -0.0054477995804909
          257.64812677  -0.040627174632423
          58.458245853   -0.18111962250584
          16.198367905   -0.46843975563173
          5.0052600809   -0.44616846289231
 s    1 1.00
         0.58731856571                   1
 s    1 1.00
         0.18764592253                   1
 p    3 1.00
          13.571470233  -0.058848116969522
          2.9257372874   -0.32024624762471
         0.79927750754   -0.75328226520436
 p    1 1.00
         0.21954348034                   1
 d    1 1.00
                     1                   1

30 0
 s    3 1.00
             13.010701   0.033485484812989
             1.9622572    0.23472187088125
            0.44453796    0.81377028525955
 s    1 1.00
            0.12194962                   1
 p    1 1.00
                   0.8                   1

31 0
 s    3 1.00
             13.010701   0.033485484812989
             1.9622572    0.23472187088125
            0.44453796    0.81377028525955
 s    1 1.00
            0.12194962                   1
 p    1 1.00
                   0.8                   1

32 0
 s    3 1.00
             13.010701   0.033485484812989
             1.9622572    0.23472187088125
            0.44453796    0.81377028525955
 s    1 1.00
            0.12194962                   1
 p    1 1.00
                   0.8                   1

33 0
 s    3 1.00
             13.010701   0.033485484812989
             1.9622572    0.23472187088125
            0.44453796    0.81377028525955
 s    1 1.00
            0.12194962                   1
 p    1 1.00
                   0.8                   1

34 0
 s    3 1.00
             13.010701   0.033485484812989
             1.9622572    0.23472187088125
            0.44453796    0.81377028525955
 s    1 1.00
            0.12194962                   1
 p    1 1.00
                   0.8                   1

35 0
 s    3 1.00
             13.010701   0.033485484812989
             1.9622572    0.23472187088125
            0.44453796    0.81377028525955
 s    1 1.00
            0.12194962                   1
 p    1 1.00
                   0.8                   1

36 0
 s    5 1.00
          1238.4016938  0.0055173650481097
          186.29004992   0.041088828555946
          42.251176346     0.1822538212649
          11.676557932    0.46828459437429
          3.5930506482    0.44575817336002
 s    1 1.00
         0.40245147363                   1
 s    1 1.00
         0.13090182668                   1
 p    3 1.00
          9.4680970621   0.056888332011037
          2.0103545142    0.31294059336471
         0.54771004707    0.76065016509135
 p    1 1.00
         0.15268613795                   1
 d    1 1.00
                   0.8                   1

37 0
 s    5 1.00
          1712.8415853  -0.0054477995804909
          257.64812677  -0.040627174632423
          58.458245853   -0.18111962250584
          16.198367905   -0.46843975563173
          5.0052600809   -0.44616846289231
 s    1 1.00
         0.58731856571                   1
 s    1 1.00
         0.18764592253                   1
 p    3 1.00
          13.571470233  -0.058848116969522
          2.9257372874   -0.32024624762471
         0.79927750754   -0.75328226520436
 p    1 1.00
         0.21954348034                   1
 d    1 1.00
                     1                   1

38 0
 s    3 1.00
             13.010701   0.033485484812989
             1.9622572    0.23472187088125
            0.44453796    0.81377028525955
 s    1 1.00
            0.12194962                   1
 p    1 1.00
                   0.8                   1

39 0
 s    3 1.00
             13.010701   0.033485484812989
             1.9622572    0.23472187088125
            0.44453796    0.81377028525955
 s    1 1.00
            0.12194962                   1
 p    1 1.00
                   0.8                   1

40 0
 s    3 1.00
             13.010701   0.033485484812989
             1.9622572    0.23472187088125
            0.44453796    0.81377028525955
 s    1 1.00
            0.12194962                   1
 p    1 1.00
                   0.8                   1

41 0
 s    3 1.00
             13.010701   0.033485484812989
             1.9622572    0.23472187088125
            0.44453796    0.81377028525955
 s    1 1.00
            0.12194962                   1
 p    1 1.00
                   0.8                   1

42 0
 s    3 1.00
             13.010701   0.033485484812989
             1.9622572    0.23472187088125
            0.44453796    0.81377028525955
 s    1 1.00
            0.12194962                   1
 p    1 1.00
                   0.8                   1

43 0
 s    3 1.00
             13.010701   0.033485484812989
             1.9622572    0.23472187088125
            0.44453796    0.81377028525955
 s    1 1.00
            0.12194962                   1
 p    1 1.00
                   0.8                   1

44 0
 s    5 1.00
          1238.4016938  0.0055173650481097
          186.29004992   0.041088828555946
          42.251176346     0.1822538212649
          11.676557932    0.46828459437429
          3.5930506482    0.44575817336002
 s    1 1.00
         0.40245147363                   1
 s    1 1.00
         0.13090182668                   1
 p    3 1.00
          9.4680970621   0.056888332011037
          2.0103545142    0.31294059336471
         0.54771004707    0.76065016509135
 p    1 1.00
         0.15268613795                   1
 d    1 1.00
                   0.8                   1

45 0
 s    5 1.00
          1712.8415853  -0.0054477995804909
          257.64812677  -0.040627174632423
          58.458245853   -0.18111962250584
          16.198367905   -0.46843975563173
          5.0052600809   -0.44616846289231
 s    1 1.00
         0.58731856571                   1
 s    1 1.00
         0.18764592253                   1
 p    3 1.00
          13.571470233  -0.058848116969522
          2.9257372874   -0.32024624762471
         0.79927750754   -0.75328226520436
 p    1 1.00
         0.21954348034                   1
 d    1 1.00
                     1                   1

46 0
 s    3 1.00
             13.010701   0.033485484812989
             1.9622572    0.23472187088125
            0.44453796    0.81377028525955
 s    1 1.00
            0.12194962                   1
 p    1 1.00
                   0.8                   1

47 0
 s    3 1.00
             13.010701   0.033485484812989
             1.9622572    0.23472187088125
            0.44453796    0.81377028525955
 s    1 1.00
            0.12194962                   1
 p    1 1.00
                   0.8                   1

48 0
 s    3 1.00
             13.010701   0.033485484812989
             1.9622572    0.23472187088125
            0.44453796    0.81377028525955
 s    1 1.00
            0.12194962                   1
 p    1 1.00
                   0.8                   1

49 0
 s    3 1.00
             13.010701   0.033485484812989
             1.9622572    0.23472187088125
            0.44453796    0.81377028525955
 s    1 1.00
            0.12194962                   1
 p    1 1.00
                   0.8                   1

50 0
 s    3 1.00
             13.010701   0.033485484812989
             1.9622572    0.23472187088125
            0.44453796    0.81377028525955
 s    1 1.00
            0.12194962                   1
 p    1 1.00
                   0.8                   1

51 0
 s    3 1.00
             13.010701   0.033485484812989
             1.9622572    0.23472187088125
            0.44453796    0.81377028525955
 s    1 1.00
            0.12194962                   1
 p    1 1.00
                   0.8                   1

52 0
 s    5 1.00
          1238.4016938  0.0055173650481097
          186.29004992   0.041088828555946
          42.251176346     0.1822538212649
          11.676557932    0.46828459437429
          3.5930506482    0.44575817336002
 s    1 1.00
         0.40245147363                   1
 s    1 1.00
         0.13090182668                   1
 p    3 1.00
          9.4680970621   0.056888332011037
          2.0103545142    0.31294059336471
         0.54771004707    0.76065016509135
 p    1 1.00
         0.15268613795                   1
 d    1 1.00
                   0.8                   1

53 0
 s    5 1.00
          1712.8415853  -0.0054477995804909
          257.64812677  -0.040627174632423
          58.458245853   -0.18111962250584
          16.198367905   -0.46843975563173
          5.0052600809   -0.44616846289231
 s    1 1.00
         0.58731856571                   1
 s    1 1.00
         0.18764592253                   1
 p    3 1.00
          13.571470233  -0.058848116969522
          2.9257372874   -0.32024624762471
         0.79927750754   -0.75328226520436
 p    1 1.00
         0.21954348034                   1
 d    1 1.00
                     1                   1

54 0
 s    3 1.00
             13.010701   0.033485484812989
             1.9622572    0.23472187088125
            0.44453796    0.81377028525955
 s    1 1.00
            0.12194962                   1
 p    1 1.00
                   0.8                   1

55 0
 s    3 1.00
             13.010701   0.033485484812989
             1.9622572    0.23472187088125
            0.44453796    0.81377028525955
 s    1 1.00
            0.12194962                   1
 p    1 1.00
                   0.8                   1

56 0
 s    3 1.00
             13.010701   0.033485484812989
             1.9622572    0.23472187088125
            0.44453796    0.81377028525955
 s    1 1.00
            0.12194962                   1
 p    1 1.00
                   0.8                   1

57 0
 s    3 1.00
             13.010701   0.033485484812989
             1.9622572    0.23472187088125
            0.44453796    0.81377028525955
 s    1 1.00
            0.12194962                   1
 p    1 1.00
                   0.8                   1

58 0
 s    3 1.00
             13.010701   0.033485484812989
             1.9622572    0.23472187088125
            0.44453796    0.81377028525955
 s    1 1.00
            0.12194962                   1
 p    1 1.00
                   0.8                   1

59 0
 s    3 1.00
             13.010701   0.033485484812989
             1.9622572    0.23472187088125
            0.44453796    0.81377028525955
 s    1 1.00
            0.12194962                   1
 p    1 1.00
                   0.8                   1

60 0
 s    5 1.00
          1238.4016938  0.0055173650481097
          186.29004992   0.041088828555946
          42.251176346     0.1822538212649
          11.676557932    0.46828459437429
          3.5930506482    0.44575817336002
 s    1 1.00
         0.40245147363                   1
 s    1 1.00
         0.13090182668                   1
 p    3 1.00
          9.4680970621   0.056888332011037
          2.0103545142    0.31294059336471
         0.54771004707    0.76065016509135
 p    1 1.00
         0.15268613795                   1
 d    1 1.00
                   0.8                   1

61 0
 s    5 1.00
          1712.8415853  -0.0054477995804909
          257.64812677  -0.040627174632423
          58.458245853   -0.18111962250584
          16.198367905   -0.46843975563173
          5.0052600809   -0.44616846289231
 s    1 1.00
         0.58731856571                   1
 s    1 1.00
         0.18764592253                   1
 p    3 1.00
          13.571470233  -0.058848116969522
          2.9257372874   -0.32024624762471
         0.79927750754   -0.75328226520436
 p    1 1.00
         0.21954348034                   1
 d    1 1.00
                     1                   1

62 0
 s    3 1.00
             13.010701   0.033485484812989
             1.9622572    0.23472187088125
            0.44453796    0.81377028525955
 s    1 1.00
            0.12194962                   1
 p    1 1.00
                   0.8                   1

63 0
 s    3 1.00
             13.010701   0.033485484812989
             1.9622572    0.23472187088125
            0.44453796    0.81377028525955
 s    1 1.00
            0.12194962                   1
 p    1 1.00
                   0.8                   1

64 0
 s    3 1.00
             13.010701   0.033485484812989
             1.9622572    0.23472187088125
            0.44453796    0.81377028525955
 s    1 1.00
            0.12194962                   1
 p    1 1.00
                   0.8                   1

65 0
 s    3 1.00
             13.010701   0.033485484812989
             1.9622572    0.23472187088125
            0.44453796    0.81377028525955
 s    1 1.00
            0.12194962                   1
 p    1 1.00
                   0.8                   1

66 0
 s    3 1.00
             13.010701   0.033485484812989
             1.9622572    0.23472187088125
            0.44453796    0.81377028525955
 s    1 1.00
            0.12194962                   1
 p    1 1.00
                   0.8                   1

67 0
 s    3 1.00
             13.010701   0.033485484812989
             1.9622572    0.23472187088125
            0.44453796    0.81377028525955
 s    1 1.00
            0.12194962                   1
 p    1 1.00
                   0.8                   1

68 0
 s    5 1.00
          1238.4016938  0.0055173650481097
          186.29004992   0.041088828555946
          42.251176346     0.1822538212649
          11.676557932    0.46828459437429
          3.5930506482    0.44575817336002
 s    1 1.00
         0.40245147363                   1
 s    1 1.00
         0.13090182668                   1
 p    3 1.00
          9.4680970621   0.056888332011037
          2.0103545142    0.31294059336471
         0.54771004707    0.76065016509135
 p    1 1.00
         0.15268613795                   1
 d    1 1.00
                   0.8                   1

69 0
 s    5 1.00
          1712.8415853  -0.0054477995804909
          257.64812677  -0.040627174632423
          58.458245853   -0.18111962250584
          16.198367905   -0.46843975563173
          5.0052600809   -0.44616846289231
 s    1 1.00
         0.58731856571                   1
 s    1 1.00
         0.18764592253                   1
 p    3 1.00
          13.571470233  -0.058848116969522
          2.9257372874   -0.32024624762471
         0.79927750754   -0.75328226520436
 p    1 1.00
         0.21954348034                   1
 d    1 1.00
                     1                   1

70 0
 s    3 1.00
             13.010701   0.033485484812989
             1.9622572    0.23472187088125
            0.44453796    0.81377028525955
 s    1 1.00
            0.12194962                   1
 p    1 1.00
                   0.8                   1

71 0
 s    3 1.00
             13.010701   0.033485484812989
             1.9622572    0.23472187088125
            0.44453796    0.81377028525955
 s    1 1.00
            0.12194962                   1
 p    1 1.00
                   0.8                   1

72 0
 s    3 1.00
             13.010701   0.033485484812989
             1.9622572    0.23472187088125
            0.44453796    0.81377028525955
 s    1 1.00
            0.12194962                   1
 p    1 1.00
                   0.8                   1

73 0
 s    3 1.00
             13.010701   0.033485484812989
             1.9622572    0.23472187088125
            0.44453796    0.81377028525955
 s    1 1.00
            0.12194962                   1
 p    1 1.00
                   0.8                   1

74 0
 s    3 1.00
             13.010701   0.033485484812989
             1.9622572    0.23472187088125
            0.44453796    0.81377028525955
 s    1 1.00
            0.12194962                   1
 p    1 1.00
                   0.8                   1

75 0
 s    3 1.00
             13.010701   0.033485484812989
             1.9622572    0.23472187088125
            0.44453796    0.81377028525955
 s    1 1.00
            0.12194962                   1
 p    1 1.00
                   0.8                   1

76 0
 s    5 1.00
          1238.4016938  0.0055173650481097
          186.29004992   0.041088828555946
          42.251176346     0.1822538212649
          11.676557932    0.46828459437429
          3.5930506482    0.44575817336002
 s    1 1.00
         0.40245147363                   1
 s    1 1.00
         0.13090182668                   1
 p    3 1.00
          9.4680970621   0.056888332011037
          2.0103545142    0.31294059336471
         0.54771004707    0.76065016509135
 p    1 1.00
         0.15268613795                   1
 d    1 1.00
                   0.8                   1

77 0
 s    5 1.00
          1712.8415853  -0.0054477995804909
          257.64812677  -0.040627174632423
          58.458245853   -0.18111962250584
          16.198367905   -0.46843975563173
          5.0052600809   -0.44616846289231
 s    1 1.00
         0.58731856571                   1
 s    1 1.00
         0.18764592253                   1
 p    3 1.00
          13.571470233  -0.058848116969522
          2.9257372874   -0.32024624762471
         0.79927750754   -0.75328226520436
 p    1 1.00
         0.21954348034                   1
 d    1 1.00
                     1                   1

78 0
 s    3 1.00
             13.010701   0.033485484812989
             1.9622572    0.23472187088125
            0.44453796    0.81377028525955
 s    1 1.00
            0.12194962                   1
 p    1 1.00
                   0.8                   1

79 0
 s    3 1.00
             13.010701   0.033485484812989
             1.9622572    0.23472187088125
            0.44453796    0.81377028525955
 s    1 1.00
            0.12194962                   1
 p    1 1.00
                   0.8                   1

80 0
 s    3 1.00
             13.010701   0.033485484812989
             1.9622572    0.23472187088125
            0.44453796    0.81377028525955
 s    1 1.00
            0.12194962                   1
 p    1 1.00
                   0.8                   1

81 0
 s    3 1.00
             13.010701   0.033485484812989
             1.9622572    0.23472187088125
            0.44453796    0.81377028525955
 s    1 1.00
            0.12194962                   1
 p    1 1.00
                   0.8                   1

82 0
 s    3 1.00
             13.010701   0.033485484812989
             1.9622572    0.23472187088125
            0.44453796    0.81377028525955
 s    1 1.00
            0.12194962                   1
 p    1 1.00
                   0.8                   1

83 0
 s    3 1.00
             13.010701   0.033485484812989
             1.9622572    0.23472187088125
            0.44453796    0.81377028525955
 s    1 1.00
            0.12194962                   1
 p    1 1.00
                   0.8                   1

84 0
 s    5 1.00
          1238.4016938  0.0055173650481097
          186.29004992   0.041088828555946
          42.251176346     0.1822538212649
          11.676557932    0.46828459437429
          3.5930506482    0.44575817336002
 s    1 1.00
         0.40245147363                   1
 s    1 1.00
         0.13090182668                   1
 p    3 1.00
          9.4680970621   0.056888332011037
          2.0103545142    0.31294059336471
         0.54771004707    0.76065016509135
 p    1 1.00
         0.15268613795                   1
 d    1 1.00
                   0.8                   1

85 0
 s    5 1.00
          1712.8415853  -0.0054477995804909
          257.64812677  -0.040627174632423
          58.458245853   -0.18111962250584
          16.198367905   -0.46843975563173
          5.0052600809   -0.44616846289231
 s    1 1.00
         0.58731856571                   1
 s    1 1.00
         0.18764592253                   1
 p    3 1.00
          13.571470233  -0.058848116969522
          2.9257372874   -0.32024624762471
         0.79927750754   -0.75328226520436
 p    1 1.00
         0.21954348034                   1
 d    1 1.00
                     1                   1

86 0
 s    3 1.00
             13.010701   0.033485484812989
             1.9622572    0.23472187088125
            0.44453796    0.81377028525955
 s    1 1.00
            0.12194962                   1
 p    1 1.00
                   0.8                   1

87 0
 s    3 1.00
             13.010701   0.033485484812989
             1.9622572    0.23472187088125
            0.44453796    0.81377028525955
 s    1 1.00
            0.12194962                   1
 p    1 1.00
                   0.8                   1

88 0
 s    3 1.00
             13.010701   0.033485484812989
             1.9622572    0.23472187088125
            0.44453796    0.81377028525955
 s    1 1.00
            0.12194962                   1
 p    1 1.00
                   0.8                   1

89 0
 s    3 1.00
             13.010701   0.033485484812989
             1.9622572    0.23472187088125
            0.44453796    0.81377028525955
 s    1 1.00
            0.12194962                   1
 p    1 1.00
                   0.8                   1

90 0
 s    3 1.00
             13.010701   0.033485484812989
             1.9622572    0.23472187088125
            0.44453796    0.81377028525955
 s    1 1.00
            0.12194962                   1
 p    1 1.00
                   0.8                   1

91 0
 s    3 1.00
             13.010701   0.033485484812989
             1.9622572    0.23472187088125
            0.44453796    0.81377028525955
 s    1 1.00
            0.12194962                   1
 p    1 1.00
                   0.8                   1

92 0
 s    5 1.00
          1238.4016938  0.0055173650481097
          186.29004992   0.041088828555946
          42.251176346     0.1822538212649
          11.676557932    0.46828459437429
          3.5930506482    0.44575817336002
 s    1 1.00
         0.40245147363                   1
 s    1 1.00
         0.13090182668                   1
 p    3 1.00
          9.4680970621   0.056888332011037
          2.0103545142    0.31294059336471
         0.54771004707    0.76065016509135
 p    1 1.00
         0.15268613795                   1
 d    1 1.00
                   0.8                   1

93 0
 s    5 1.00
          1712.8415853  -0.0054477995804909
          257.64812677  -0.040627174632423
          58.458245853   -0.18111962250584
          16.198367905   -0.46843975563173
          5.0052600809   -0.44616846289231
 s    1 1.00
         0.58731856571                   1
 s    1 1.00
         0.18764592253                   1
 p    3 1.00
          13.571470233  -0.058848116969522
          2.9257372874   -0.32024624762471
         0.79927750754   -0.75328226520436
 p    1 1.00
         0.21954348034                   1
 d    1 1.00
                     1                   1

94 0
 s    3 1.00
             13.010701   0.033485484812989
             1.9622572    0.23472187088125
            0.44453796    0.81377028525955
 s    1 1.00
            0.12194962                   1
 p    1 1.00
                   0.8                   1

95 0
 s    3 1.00
             13.010701   0.033485484812989
             1.9622572    0.23472187088125
            0.44453796    0.81377028525955
 s    1 1.00
            0.12194962                   1
 p    1 1.00
                   0.8                   1

96 0
 s    3 1.00
             13.010701   0.033485484812989
             1.9622572    0.23472187088125
            0.44453796    0.81377028525955
 s    1 1.00
            0.12194962                   1
 p    1 1.00
                   0.8                   1

97 0
 s    3 1.00
             13.010701   0.033485484812989
             1.9622572    0.23472187088125
            0.44453796    0.81377028525955
 s    1 1.00
            0.12194962                   1
 p    1 1.00
                   0.8                   1

98 0
 s    3 1.00
             13.010701   0.033485484812989
             1.9622572    0.23472187088125
            0.44453796    0.81377028525955
 s    1 1.00
            0.12194962                   1
 p    1 1.00
                   0.8                   1

99 0
 s    3 1.00
             13.010701   0.033485484812989
             1.9622572    0.23472187088125
            0.44453796    0.81377028525955
 s    1 1.00
            0.12194962                   1
 p    1 1.00
                   0.8                   1

[5d]
[7f]
[9g]
[core]
1 : 60
2 : 28
3 : 28
4 : 28
5 : 28
6 : 28
7 : 28
8 : 60
9 : 28
10 : 28
11 : 28
12 : 28
13 : 28
14 : 60
15 : 28
16 : 28
17 : 28
18 : 28
19 : 28

[MO]
 Sym= A
 Ene=    -0.245859809
 Spin= Alpha
 Occup=    2.00000
   1    -0.093172482700156
   2    -0.013839343604308
   3      0.12922369941189
   4      0.12586407641963
   5    -0.017515521013351
   6    -0.0052747185319629
   7    0.0061534714593149
   8    -0.017657291146969
   9    -0.0053119414416196
  10    0.0062124128445259
  11      0.04718498243989
  12     0.015976171008268
  13    -0.018427618590905
  14    0.0030477437806207
  15    0.0036843820072863
  16    -0.0054265637449925
  17      0.02948189523065
  18    0.00012194111507731
  19    -0.00094574978877458
  20    -0.038327214389813
  21    -0.0063087253980933
  22    -0.0096302760345382
  23    -0.0027928415750902
  24    4.6909757072981e-05
  25     0.012533126436643
  26    0.0022567325395674
  27     0.013878800763046
  28     0.013012218769983
  29    -0.013956517182933
  30    -0.085329266057971
  31     0.055080161250227
  32    -0.0087216413474056
  33    -0.015779336882474
  34     0.067702779113005
  35    -0.010718478244497
  36    -0.019395018164584
  37     -0.15859438590256
  38     0.025660394500399
  39     0.046776216822839
  40     -0.21901692115404
  41     0.030520149077673
  42     0.052850017594327
  43     0.010241333501247
  44    -0.0015554564348898
  45    -0.00025685350931429
  46    -0.016280593055664
  47    0.0011773823352286
  48    -0.011218452052746
  49    0.0035596176290712
  50    0.00038070452572256
  51     0.017108894614642
  52    -0.0004141780237382
  53    0.0054908735446147
  54     0.005329650937945
  55    -0.011419903455756
  56    -0.016264465930381
  57    0.0096250682274298
  58      -0.0241548292383
  59    -0.0073410653913743
  60     0.011830239450093
  61    -0.029760776679801
  62    -0.0090772627360881
  63    -0.028526060565696
  64      0.06920103575865
  65      0.02050930875306
  66    -0.029564351143079
  67     0.091167811556728
  68     0.030672370960502
  69     0.003161670528443
  70    -0.00020590131980133
  71    -0.0011956411796534
  72    0.0021822055226474
  73    0.0017365706624215
  74    -0.0034579279433415
  75    0.00056883535758926
  76    0.00070100009961159
  77    -0.0021664616079174
  78    -0.0020827797359246
  79    0.0037069775084706
  80    0.0032547276255641
  81    -0.0013535545162134
  82    -0.022928205848734
  83     0.025125151837611
  84    -0.00066620216956473
  85    -0.046467334231955
  86     0.030896814487665
  87    -0.00080077271103115
  88    -0.057036793312606
  89    -0.072679282603966
  90    0.0018412582201438
  91      0.13331705332973
  92    -0.083237902509498
  93    0.0030482945683181
  94      0.16112262662252
  95    -0.0011203250934099
  96    0.00067467604810043
  97    -0.0001003907375961
  98    -0.00037859536658325
  99    8.6891989691557e-05
 100    -0.00094312019371799
 101    0.00079871337077983
 102    -0.00025120087368933
 103    -0.00059381307090868
 104    -0.00014577612813684
 105    0.00067028413708146
 106    0.00045277255708726
 107    0.0054014584454423
 108    -0.022074894353411
 109     0.005584238285517
 110    0.0026053412662352
 111    0.00089825187489297
 112    0.0068462402826905
 113    0.0031929341736598
 114    0.0010692818517149
 115    -0.015474717925986
 116    -0.0078333811652784
 117    -0.0033204851678218
 118    -0.032802157212602
 119    -0.0068969434567314
 120    0.00096859345285906
 121    0.00012667914683892
 122    0.00023110922011538
 123    -0.00011955730912586
 124    -0.00049191564407326
 125    -8.4975462392933e-06
 126    0.0013793974938855
 127    0.00025557326056086
 128    0.0002949172188633
 129    -0.0017821574151488
 130    0.00032897353382681
 131    0.0031377613909587
 132    0.0028501399595075
 133    -0.002504008311913
 134    -0.018440926229696
 135    0.0060565165389571
 136     0.033567866640677
 137    -0.010857033682229
 138    0.0074184418574518
 139     0.041189149380044
 140    -0.013368924084288
 141    -0.018326254510307
 142    -0.097050189562888
 143     0.030712479613979
 144    -0.016403363198616
 145     -0.11737188955774
 146     0.040517244584758
 147    0.00099606348984913
 148    -0.00018361347861433
 149    0.00088157527908249
 150    0.0010381586966764
 151    -0.000155131416858
 152    7.730301910634e-05
 153    0.00073101036239246
 154    -7.5224783995191e-05
 155    0.00077105847863734
 156    -0.00027531921278605
 157    0.0069494371338761
 158    0.0067274793113103
 159     -0.01376113413607
 160    -0.022032246458148
 161    0.0020909044779841
 162    -0.0050786073848798
 163     0.031417282635629
 164    0.0025362507661392
 165    -0.0062683615475491
 166     0.038675721210655
 167    -0.0067725804946178
 168     0.014200045867887
 169    -0.090730988947809
 170    -0.0030560945648335
 171      0.02063733489155
 172      -0.1162782081333
 173    -0.0037345622274547
 174    -0.00060728837109193
 175    0.0015586862918266
 176    -0.00039957971553074
 177    0.00015507612975911
 178    0.0029555534526367
 179     0.000980542892131
 180    -0.0020505882248605
 181    0.00046941636515312
 182    0.00011149380991308
 183     -0.33877665293938
 184    -0.051286447150921
 185      0.47397563830415
 186      0.47194353708891
 187    -0.0016361366512624
 188    0.00010651205203888
 189    -0.0034632413817158
 190    -0.0016528536039815
 191    0.0001100458787393
 192    -0.0035116767290687
 193    0.0041910446711667
 194    0.00064908934122415
 195    0.0091523575413737
 196    0.0053741822177056
 197      0.01386153170447
 198     0.023376258119145
 199     0.001471905636138
 200    0.0019309990088873
 201    -0.0034744620593331
 202    0.0030221342577135
 203    -0.0028882491501907
 204    -0.0021841862960307
 205    -0.0010056668418485
 206    6.5871994261036e-07
 207    0.0011198397737405
 208    0.0011471128772854
 209     0.016953012830243
 210     0.015976947370314
 211    -0.019184019892305
 212    -0.099098354813146
 213    -0.050496911488442
 214    -0.014777569876581
 215    -0.0073681387675098
 216    -0.062053394930101
 217     -0.01817720706704
 218    -0.0090383152822087
 219      0.14505328064405
 220     0.043551319445423
 221     0.021885486792784
 222      0.20367509659393
 223     0.050877660368185
 224     0.024926406101155
 225     0.010987129828713
 226    -0.0013564905508956
 227    -0.00033644414641837
 228    -0.019336042071207
 229    0.00083451717403958
 230    -0.011832302756036
 231    0.00068585334320341
 232    0.00038244687169213
 233     0.021184646196354
 234    -0.0023244410814755
 235     0.014633521318367
 236     0.013987059523849
 237    -0.022153070173527
 238    -0.069572170455123
 239    0.0027150345883158
 240    -0.055965154035473
 241     0.010337621344832
 242    0.0033213453611498
 243    -0.069019083246041
 244     0.012733310183805
 245    -0.0082089762911972
 246      0.15907737106016
 247    -0.029480467502279
 248    -0.0083536777166306
 249      0.23574327415679
 250    -0.042474837322534
 251    0.0047998115621447
 252    -1.7794726583716e-05
 253    0.0027414576505839
 254    0.0092027924872521
 255    0.00079719208312881
 256    -0.0040782183314682
 257    9.1969221114545e-05
 258    -0.0020459436519532
 259    -0.0067795648193418
 260    -0.00088543558884173
 261     0.015009519299177
 262     0.014346998597696
 263    -0.022839509871115
 264    -0.071586971946357
 265    -0.0022762480428163
 266     0.010419232291235
 267    -0.057433100833183
 268    -0.0027756062671414
 269      0.01283412801991
 270    -0.070836475327534
 271    0.0069677555226785
 272     -0.02963498274522
 273      0.16322351878461
 274    0.0063907368495865
 275    -0.043073768371335
 276      0.24145044854918
 277    -0.010543495038768
 278    -0.00079515617972036
 279    0.0027794810608139
 280    0.00051858828997343
 281    5.4492428750486e-05
 282    0.0083634623930545
 283    0.0010804685512289
 284    -0.0021074993864124
 285    5.3944228063681e-05
 286    -0.00024681517353365
 287       0.0098606401991
 288    0.0092213838168756
 289    -0.011046134621738
 290    -0.052743977251786
 291    -0.0020496857704945
 292     0.054673988077765
 293    0.0070816419847512
 294    -0.0025305107399175
 295     0.067348009219874
 296    0.0087267434816362
 297    0.0057581938269372
 298     -0.15639700345908
 299    -0.020320383087354
 300    0.0080493302019054
 301     -0.21581617844648
 302    -0.026864646208406
 303    0.0041502164436415
 304    -6.947375045118e-06
 305    -0.0016097143428913
 306    0.0071914221492045
 307    0.00031038515298494
 308    -0.0024461545913299
 309    2.765469589414e-06
 310    0.0010136136761269
 311    -0.0054685792954003
 312    -0.00042426910496616
 313     0.010434597559912
 314    0.0097767224023381
 315    -0.012464267356837
 316    -0.053072065798403
 317    0.00011226457625361
 318    0.0055521993721371
 319     0.059398449672232
 320    0.0001212889523889
 321    0.0068248437676467
 322     0.073106453333825
 323    -0.00060689778915401
 324    -0.016070162408646
 325     -0.17031022184896
 326    0.0014055082504032
 327    -0.020426282250105
 328     -0.23011371762154
 329    -0.0082352609533643
 330    -0.00036414683167679
 331    -0.0010615016422953
 332    9.4927537736039e-05
 333    -0.00012506018676153
 334    0.0054215918274983
 335    0.00097514368727751
 336    0.00020214643011178
 337    -0.00067791891885626
 338    -6.4279883876307e-05
 339     -0.11680082754214
 340    -0.017385566353926
 341      0.16293562357107
 342      0.15453089029743
 343     0.020236097080819
 344    0.0080828652827371
 345    -0.0064902520013252
 346     0.020390832908315
 347     0.008161080592797
 348    -0.0065450887437739
 349    -0.055853242321223
 350    -0.024835926156583
 351     0.018558278606611
 352    -0.0028950433281593
 353    -0.0029700708558419
 354    0.0090693547163332
 355     0.022528248046259
 356    0.0059327364278499
 357    -0.00078137034864143
 358    -0.044342118961282
 359    -0.001711669719461
 360    -0.0071079088487703
 361    -0.0023756819450174
 362    0.00036792829276362
 363     0.013662146287579
 364    0.0034837008083152
 365    0.00072775012848766
 366    0.00043378435719259
 367    0.0068197915703729
 368    -0.025698962159424
 369    -0.010760051322013
 370    -0.0018807514661525
 371    0.0012330734195993
 372      -0.0132000620318
 373    -0.0023461838130681
 374    0.0015062852395106
 375      0.03020805051044
 376    0.0046343094926137
 377    -0.0039179030158445
 378     0.050963541392171
 379     0.011135356192199
 380    -0.0016790271110193
 381    0.00034933969170446
 382    -0.00015156969580654
 383    -0.00016958232187521
 384    -0.00038052440894953
 385    -0.00029690934670741
 386    0.0010852315993129
 387    -0.0004029113631189
 388    0.00034084775024717
 389    -0.0021836395838941
 390    -0.00071600162572818
 391    0.0041539792791348
 392    0.0036753471551169
 393    -0.0016472728210657
 394    -0.027143859073962
 395    -0.020852655536482
 396    -0.047406657415481
 397    -0.0011760835961559
 398    -0.025652660467059
 399    -0.058197574035118
 400    -0.0014240885118549
 401     0.060437259322578
 402      0.13590093739169
 403    0.0033495779307979
 404     0.068751230267321
 405      0.16756280755632
 406    0.0046152776473088
 407    0.0012289132583652
 408    -3.4761273373845e-05
 409    -0.0001118521402753
 410    0.0012401636572241
 411    -0.00058411234669074
 412    0.0006934016644091
 413    5.1407266697695e-05
 414    -0.0003194918243665
 415    0.00045882344278459
 416    -0.00073790989019976
 417    0.0066721201328393
 418    0.0064465567347042
 419    -0.012852502864577
 420    -0.023092922986285
 421    -0.0088820933541486
 422    -0.0068153846784266
 423    -0.029357243415406
 424    -0.010928456878789
 425    -0.0084180844251682
 426    -0.036177989743765
 427     0.026162848714739
 428     0.019173124649046
 429     0.083940144341347
 430     0.027749764634209
 431     0.027730952045703
 432      0.11275998350646
 433     -0.00437884498941
 434    -0.0015620816221937
 435    -0.001058919410666
 436    -0.001494002515409
 437    0.00026717439439238
 438    0.0044254071266276
 439    0.0018663643612155
 440    0.00053446704956059
 441    0.0016858049292581
 442    -0.00054440642590838
 443    0.0074315104512866
 444    0.0071756635251328
 445    -0.014144249784562
 446    -0.024528743009901
 447    -0.0014557871345715
 448     0.034582116390788
 449    -0.0033650830052643
 450    -0.0017655117276894
 451     0.042609455382165
 452    -0.0041691152388799
 453    0.0047471505975816
 454    -0.099774325565183
 455    0.0091193613150628
 456    0.0016052106353242
 457     -0.12983593589764
 458     0.014922404718737
 459    0.0029207311912681
 460    9.1979312211162e-05
 461     0.001615462896758
 462    0.0039152042916198
 463    0.00055514816973243
 464    -0.0026955085105751
 465    -0.00050224053155766
 466    -0.0022074909255996
 467    -0.0033405812375051
 468    -0.00077943546123628
 469    0.0042237440512948
 470     0.003909801698163
 471    -0.0049173921092487
 472    -0.020846765110608
 473    -0.0062508006204818
 474    -0.010596478927243
 475     0.040099878325085
 476    -0.007646408994971
 477    -0.013044223941322
 478     0.049214357443234
 479     0.019136790429124
 480     0.030176959194321
 481     -0.11610615918122
 482     0.016198754685356
 483     0.038682853147424
 484     -0.14045350776176
 485    -0.0019728913890311
 486    0.00016151651842219
 487     0.001094135526645
 488    -0.00032688028158219
 489    0.00017941594258337
 490    -0.00063556960616506
 491    0.00043033743384473
 492    -0.000502520155877
 493    0.00019248738981749
 494    -0.00067455336159266
 495    0.0013620132144468
 496    -0.0032792179472679
 497    -0.013932427430389
 498    -0.0073811809639022
 499    -0.0046975184238848
 500    -0.002392627218673
 501    -0.0019421759271857
 502    -0.003438787226379
 503    -0.0020570123210622
 504    0.00023054867405421
 505    -0.00020184095029592
 506    -0.00016286884938787
 507    -0.00044645090530875
 508    -0.00021568374552989
 509     0.004438417045782
 510     0.011227008369993
 511     0.010158431427497
 512    0.00058153882392105
 513    -0.010663427234218
 514    -0.011781908882321
 515    -0.010806613794085
 516    0.0071122562024998
 517    0.0087031648073375
 518    5.642206396495e-05
 519    -0.00052092822095821
 520    -0.00020415658608996
 521    -0.00019861041515415
 522    -0.00051025771023371
 523    0.0027466923704166
 524    0.0086791780946941
 525    -0.00067249107192091
 526    -0.00053446864451444
 527    8.6274776549987e-05
 528    0.0056778173587455
 529    -0.020404255765146
 530    -0.00020388414224182
 531    -0.0014032096700346
 532    -0.0014185663997345
 533    0.0026525824649616
 534    0.0055055282103809
 535    -0.00071539587157664
 536    0.00016153009028031
 537    -0.00061784529863458
 538    0.0012939978558377
 539    0.0056586040482684
 540    2.4008529957095e-05
 541    -0.00028427787399217
 542    -0.00022300224899741
 543    0.0021813108599044
 544    0.0066131317789149
 545    0.00019396815707014
 546    -0.00021185845825839
 547    -0.00047358809920524
 548    0.00089842342962208
 549    0.0042736457733504
 550    -0.00043114768061233
 551    -3.7927076653754e-05
 552    6.4917177489683e-05
 553    0.0011272857425166
 554    -0.0010752746566386
 555    -0.018515724680289
 556    0.0021997824093697
 557    -0.0010345174506996
 558    -0.0057011990951298
 559    0.0016793262319555
 560    -0.0029637703725688
 561    -0.013026139378596
 562    4.0941391826718e-06
 563    7.014469764832e-05
 564    1.3570293429215e-05
 565    -4.9598156682592e-05
 566    0.00016449867429599
 567    0.0019152173675982
 568    0.0038250615038843
 569     0.013181211163395
 570    3.6349348881952e-05
 571    -0.0035551275229005
 572     0.005590998015925
 573     0.001646697092343
 574    -9.8118208774317e-05
 575    -0.0018525977321769
 576    8.6230030261688e-05
 577    7.0636094767793e-05
 578    0.0002769070843921
 579    4.6640495184533e-05
 580    0.00022822403445665
 581    0.0030721203688512
 582    -0.011422476001333
 583    0.00053948973072797
 584    -0.00048475802971704
 585    0.00049119018972262
 586    -0.0033812183582541
 587    0.0083307633813507
 588    -0.0001695357211333
 589    0.00033048154186288
 590    -5.8620548748318e-05
 591    0.0018222558561821
 592    -0.007695833670207
 593    -0.00036827170948014
 594    -0.00062405449208077
 595    0.00080854367609739
 596    -0.00090047679182778
 597    0.0073543665416414
 598    -4.4014372738785e-05
 599    0.00010203664932423
 600    -0.00012983652761298
 601    -0.00056134381007964
 602     0.014499019880344
 603    0.00012804673463814
 604    0.00056981834938269
 605    -0.00011567234866894
 606    0.0011626288238492
 607    -0.0039553257231274
 608    -3.554324776222e-05
 609    -0.0008491102847157
 610    0.00030971919733637
 611    0.0025374005085974
 612    -0.0052609014797691
 613    -0.022092440248849
 614    0.0048913138955327
 615    -0.0045564990324645
 616    -0.0041616490821583
 617    0.0024846201687828
 618    0.0011243138229018
 619    0.00059902215536173
 620    -0.00061061748348555
 621    -0.00020351198657083
 622    0.00019711097401173
 623    -0.00026900179532383
 624    -2.9528653464841e-05
 625    0.0054048254835907
 626     0.012310720603332
 627     0.020812859349029
 628    0.0030421357515987
 629     -0.01372937811326
 630    -0.0064793669211269
 631    0.00061905917263038
 632    0.0099589595893527
 633    0.0013483209364499
 634    -0.00035516343284643
 635    0.00011599461347139
 636    -0.00029178042477394
 637    -0.00030990814770144
 638    0.0001251235706844
 639    0.00060934254551313
 640    0.00029809808091768
 641    0.0012284388197576
 642    -0.00046829490576009
 643    -0.00056281502971694
 644    -0.0024729991854316
 645    -0.0053778609428455
 646    -0.00083052818232751
 647    0.00011329121450308
 648    2.1304858765808e-05
 649    0.0064221969753752
 650    -0.017826113955349
 651    0.00056768240720121
 652    -0.0020933060491958
 653    -0.0010782393708457
 654    0.0044866751348636
 655     0.011973325762749
 656    0.00018812754172984
 657    0.00036834748895975
 658    -8.7231631356477e-05
 659    0.0014037835632702
 660    0.0065631830799686
 661    -2.3687940014266e-05
 662    -0.00031790114881666
 663    -0.00024711176737269
 664    -0.0035616459036708
 665     0.010329154028558
 666    -0.0001964464799004
 667    7.9067335374032e-05
 668    -0.00028199935013652
 669     0.001243969659105
 670    -0.0015774845028747
 671    -0.016856986577982
 672    -0.0018403496668892
 673    -0.00028310243937971
 674    -0.0052952587797421
 675    -0.0019837517007315
 676    -0.0020014332458022
 677    -0.014737516022921
 678    9.7900927752086e-06
 679    -0.00014838005682844
 680    -6.33309539911e-05
 681    7.1663588470116e-05
 682    -0.00012729077743202
 683    0.0019440573961616
 684    0.0040220908935877
 685     0.013155914721102
 686    -0.0028560512847945
 687    -0.0017374518922524
 688    0.0071356407061479
 689    0.0016888699606158
 690    -0.0025928587554117
 691    -0.0011324364948793
 692    4.1465577620872e-05
 693    -6.7379895214531e-05
 694    0.00034724034080581
 695    7.3532218468688e-05
 696    -0.00017947264810033
 697     0.004258258722614
 698    -0.012676741174466
 699    -0.00087372096278384
 700    -0.00046686127909061
 701    0.00072011807621641
 702    0.0012503060073114
 703    -0.002859644276149
 704    0.00020739963695587
 705    -0.0004481303698618
 706    0.0010150960411724
 707    -0.004284279947022
 708    0.0040679192516564
 709    0.00033048860248056
 710    0.00035636417890736
 711    6.4929315883418e-05
 712    0.00091814369561462
 713    -0.0085188469798203
 714    -0.00011259681751565
 715    -0.00091906560726955
 716    0.00013054699763992
 717    -0.0001183318626526
 718     0.016097819911567
 719    -5.4193994045589e-05
 720    0.00063370920054415
 721    -0.0001037871667554
 722    -0.0016066855683012
 723    0.0081111464282194
 724    9.4131745731092e-05
 725    0.00013284835847904
 726    -9.3160336754924e-05
 727    0.0015162037807593
 728    -0.0020350919160165
 729    -0.020204423679324
 730    -0.0014761459235876
 731    -0.0040020427624851
 732    -0.00093443747140121
 733    -0.00086126817219411
 734    -0.012410590142189
 735    -0.0027132216435389
 736    7.1515770437457e-06
 737    -0.00013140002857776
 738    -1.7213157101849e-05
 739    -3.2547779893081e-05
 740    -0.00013836561308569
 741    0.0019422116302793
 742    0.0039012092416778
 743     0.013236729038935
 744    -0.00019860191887607
 745    0.0068958934760773
 746    -0.0032200504958752
 747    -0.0015271017390275
 748    -0.0028021165280144
 749    -0.00044116777584474
 750    -6.8515610515662e-05
 751    -0.0002542020406468
 752    0.00025839139964396
 753    -4.3394777227053e-05
 754    -9.7583968938019e-05
 755    0.0034280681520987
 756     -0.01197191173073
 757    -0.0006617573338222
 758    0.00057774125178457
 759    -0.00061995124057452
 760    -0.0040917622674876
 761     0.009153948766822
 762    0.00025851771973799
 763    -2.8725185621333e-05
 764    0.00040004836039008
 765     0.002010890454118
 766    -0.0079020142673926
 767    0.00030870418848762
 768    0.00081165076248735
 769    -0.00059177228174539
 770    -0.0011484374693249
 771    0.0084221236610066
 772    5.6215360479576e-05
 773    -6.459639569276e-05
 774    0.00012942195203593
 775    0.00027043642791701
 776     0.015288277274474
 777    -3.9167450852435e-05
 778    -9.1029785911879e-05
 779    0.00054863225916156
 780    0.00026170571563032
 781    -0.0036077404135162
 782    -0.00011137110291913
 783    0.00013528512630569
 784    -0.00089185490572226
 785    -0.0035980413813629
 786     0.010467490764433
 787    0.0065998019393169
 788    0.0016979685256375
 789    -0.0062915073919922
 790    -0.0054666527426357
 791    0.0085232600800991
 792    0.0058494589503291
 793    0.0017190819938449
 794    0.00010223677790657
 795    -0.00033167849212101
 796    -0.00039812616588467
 797    -8.0475948418054e-05
 798    -0.0001836261920363
 799    -0.0013572641358173
 800    -0.0018052444308917
 801    -0.017375563639837
 802    -0.0036876958472444
 803    0.0001732915580868
 804    -0.00080793904354852
 805    0.0084693280407004
 806    -0.0069316844434536
 807    0.0024982228793518
 808    9.5002596996327e-06
 809    0.00020982190389275
 810    9.6847873817559e-05
 811    -0.00012769411155332
 812     0.000108141811331
 813    -0.0022752419248997
 814    -0.0063404201869867
 815    0.00020597098097847
 816    -5.7507506561138e-05
 817    0.00057848718682247
 818    0.0028889064937816
 819      0.01090894509704
 820    -0.00018411642351043
 821    -0.00035905600410989
 822    0.0002286809582249
 823    -0.00023723124466716
 824    0.0063512218706416
 825    0.00017869270320921
 826    0.00019747292661719
 827    -0.00016736291833047
 828    0.0052055000966655
 829    -0.0039069226499967
 830    5.6940278060182e-05
 831    0.00033109040667026
 832    0.00097618957613448
 833    -0.0026294328824974
 834    -0.0020843540590267
 835    -0.00037094942406308
 836    -0.00016728246377042
 837    -0.00041695999739879
 838    0.0043966917227375
 839     0.005307559112976
 840    0.00080136892409375
 841    0.0010364141521181
 842    0.00051167544624286
 843    0.00085640610340785
 844    -0.0023487154642685
 845    -0.0075329511966123
 846    0.0013592920387152
 847    -0.001155481292419
 848    0.0015423781686603
 849    -0.0011804494274088
 850    -0.00067239701854736
 851    0.00015313355096028
 852    -4.0169195487674e-05
 853    -0.00010964595833441
 854    0.00015126250235809
 855    3.3297179582136e-05
 856    9.0283010487032e-05
 857    0.00013393075745914
 858    0.0019874581954161
 859    -0.010181989433527
 860    1.2359172504143e-06
 861    -0.00031962062086132
 862    0.0025186748960899
 863     0.005009182519465
 864    -0.0031724363962611
 865    0.00098387086104127
 866    -4.5576526573509e-05
 867    -0.00018090517030556
 868    0.00020836238232641
 869    -3.0969923348015e-05
 870    0.00012108566684375
 871    0.0028570429401817
 872    0.0035266607908021
 873    0.00047541331582758
 874    -0.0002268803849398
 875    0.00033422352566182
 876    0.0028059710921091
 877     0.008332636378789
 878    0.0003121150916157
 879    -5.7524630730144e-05
 880    0.00029018968048714
 881    0.0015350736637954
 882    0.0019778806013148
 883    -0.00028746735390237
 884    -0.000122384433761
 885    0.0001548138413435
 886    -0.00026657523202138
 887    0.0024945893062454
 888    0.00010841414599629
 889    -1.740889110558e-05
 890    6.5439867067548e-05
 891    0.00046775989256462
 892    0.0036073880323135
 893    7.4257568234706e-06
 894    -0.00012542964425046
 895    -3.6322176931241e-05
 896    0.00026219574458917
 897    0.0026341602590254
 898    3.9288940261568e-05
 899     5.78056251349e-05
 900    9.7193961755582e-05
 901    0.0012769098191968
 902    -0.0014173534960665
 903    -0.018834271488575
 904    0.0014629585379647
 905    -0.0054344974211509
 906    -0.00040610770861025
 907    0.0012008670526653
 908    -0.013369154787528
 909    -0.0030251290162229
 910    5.601007209591e-06
 911    0.0001215943563846
 912    6.0731686371348e-06
 913    2.4082148970099e-05
 914    0.00010333292419001
 915    0.0019688917569472
 916    0.0039641235293151
 917     0.013990094561009
 918    0.0017795720583432
 919    0.0056536531798269
 920    -0.0017854808241074
 921    -0.0009978574123502
 922    0.00026217189457822
 923    -0.0022945384556704
 924    -5.7401767641549e-05
 925    0.00015015227628476
 926    0.00031417459481605
 927    -1.4540214206636e-05
 928    5.429817006751e-05
 929    -0.0040609535413126
 930    0.0020769361542773
 931    -0.0002552426272448
 932    0.00010619883502004
 933    0.00026437790507065
 934    0.0036845674664808
 935    -0.011374550051135
 936    0.0007269165774872
 937    0.00061086328569793
 938    -0.0003155170257947
 939    0.0012092565793371
 940    -0.0024901114140883
 941    -0.00032365759060751
 942    0.00091941446545011
 943    -0.00051571341230898
 944    -0.0014396656973543
 945    0.0075817969186252
 946    -8.8483833409066e-05
 947    -0.00013603711574942
 948    0.00010892388951757
 949    0.0011215615580495
 950    -0.0053219476866303
 951    8.9698125563767e-05
 952    0.00019010588820335
 953    -0.00094871209427814
 954    -0.00060525687692686
 955     0.015731020387065
 956    9.5375060789763e-05
 957    -0.00010255148140945
 958    0.00065417392164491
 959    -0.0030916728955749
 960    0.0090367788743943
 961    0.0049293081619651
 962    -8.1007527282762e-05
 963    -0.0051066257016748
 964    -0.0068422940084756
 965    -0.0075367494054524
 966    0.00018917310424996
 967     0.002377073122234
 968    -1.6592658934582e-06
 969    0.00012323491030361
 970    -0.00040187776325652
 971    -9.4511599948874e-05
 972    0.00031145284129163
 973    -0.0008775931698673
 974    -0.0011517769222143
 975    -0.011368853162824
 976    0.0037683919705729
 977    0.00020010738454945
 978    0.00068747089249295
 979    -0.0073246640233378
 980    0.00056086126860332
 981    -0.008698802153467
 982    0.0001239973899992
 983    -0.00014555183757565
 984    0.00010629007437481
 985    -2.1933003296547e-05
 986    -0.00023662070732072
 987    -0.0023332516599564
 988    -0.010515957137396
 989    -8.9228153566696e-05
 990    0.00032794928551374
 991    -0.00025319797804903
 992    0.0031758503015988
 993    0.0099138929439433
 994    0.00027164617298481
 995    0.00032922263363849
 996    -0.00029654494680971
 997    -0.00072928198329457
 998    0.0061185296129062
 999    -0.00021418623780099
 1000    -0.00013917405281188
 1001    0.00022751016513983
 1002    0.0042767052788891
 1003    -0.0037766975291288
 1004    -0.00012127681465105
 1005    0.00087383083578495
 1006    0.00045704930567335
 1007    -0.0032103591817927
 1008    -0.000467860353465
 1009    0.00047889265397553
 1010    -0.00044763456789091
 1011    -0.0001777439029123
 1012    0.0042224527640739
 1013    0.0044579323128862
 1014    -0.00085674245348388
 1015    0.00057503396602518
 1016     0.000928302285917
 1017    0.00063975029406856
 1018    -0.0016516326337491
 1019    -0.0066734178130569
 1020    -0.00089419916935561
 1021    0.00094209155425334
 1022    -0.00081211196548601
 1023    0.00094737762879006
 1024    0.00021796333275397
 1025    -0.00061213692520923
 1026    2.6032119131693e-05
 1027    -6.0284895853059e-05
 1028    9.0925252814936e-05
 1029    4.0755845846739e-05
 1030    0.00011830540974917
 1031    -0.00028400718945514
 1032    0.0010134870762999
 1033    -0.011678693806783
 1034    0.0008753119231131
 1035    0.0013825028560177
 1036    -0.00079796717795022
 1037    -0.0059371191462895
 1038    0.0017340562303547
 1039    -0.001603400254874
 1040    5.1919760518269e-05
 1041    -9.7934426408115e-05
 1042    0.00014550127590092
 1043    3.6686582145016e-06
 1044    0.00014789460356954
 1045    0.0025739935094387
 1046    0.0065577090123989
 1047    -0.00026636237378503
 1048    0.00017218819426189
 1049    -0.00018662287968591
 1050     0.002448113406699
 1051      0.00827881758434
 1052    -0.00030380284181875
 1053    0.00023475949145715
 1054    4.2204399826716e-05
 1055    0.0013677065271063
 1056    0.0013869327323232
 1057    0.00024563818957305
 1058    0.00010722480973122
 1059    -9.8398466850169e-05
 1060    -7.0306202694674e-05
 1061    0.0019908295212817
 1062    -7.8961855650048e-05
 1063    3.7773134094056e-05
 1064    -1.6540582778474e-05
 1065    5.6539409673303e-05
 1066    0.0028018312790277
 1067    -5.594776161418e-06
 1068    -3.4053401225534e-05
 1069    -7.104475287306e-05
 1070    0.00028768888885742
 1071    0.0022081356378119
 1072    -1.878214842313e-05
 1073    5.8083237284335e-05
 1074    4.6472234442803e-05
 Sym= A
 Ene=   -0.2135106778
 Spin= Alpha
 Occup=    2.00000
   1       0.2780777726398
   2     0.041945167038544
   3     -0.38285761213023
   4     -0.40273674799494
   5     0.022175533496464
   6    0.0087430357185823
   7    -0.0087295230322361
   8     0.022454935277873
   9     0.008831083199904
  10    -0.0088285222480591
  11    -0.063045839083439
  12    -0.026501913913788
  13      0.03085232814311
  14    -0.038303880648184
  15    -0.015188587783665
  16    -0.0031165420852315
  17    -0.0090097108592279
  18    0.00084465941457006
  19    0.0039328433315084
  20    0.0085952320553842
  21    0.0058961105739594
  22    0.0033303220740443
  23    0.0017871874099792
  24    -0.00095477411323765
  25    -0.0029473995673737
  26    -0.0033839894701902
  27    -0.017978348380284
  28     -0.01749321520186
  29     0.033611609323315
  30     0.074974296942829
  31     0.016725631161773
  32    0.0041561349880231
  33    0.0074187408279364
  34     0.020677835222846
  35     0.005098401358194
  36    0.0090815145059472
  37    -0.047405982445415
  38    -0.012697966072187
  39    -0.023041314892255
  40    -0.082672723178954
  41    -0.012962668645322
  42    -0.021083775387356
  43    -0.0099560030082866
  44    0.0017049679003048
  45    -4.6604031887855e-05
  46     0.017021901288468
  47    -0.00010229701788129
  48     0.012147029000441
  49    -0.0022863852950793
  50    -0.00033118811781841
  51     -0.02077432480534
  52    0.00029711182483267
  53    -0.011121694305527
  54    -0.010766809935837
  55     0.019261922046789
  56     0.049703431972865
  57    -0.0015754637062788
  58     0.038866165455209
  59    0.0066076448357338
  60    -0.0019112837640106
  61     0.048027964643148
  62    0.0081837243895304
  63    0.0056369483545615
  64     -0.11011019404861
  65    -0.018213891033435
  66    0.00028654691913405
  67     -0.16958059628049
  68    -0.030812741159738
  69    -0.0055219938411172
  70    4.920167347815e-05
  71    0.0019408434069342
  72    -0.0084821632347996
  73    -5.3176144399156e-05
  74    0.0054954686194994
  75    -0.00015916758595042
  76    -0.0013654802764563
  77     0.008436919459426
  78    -7.9482599659988e-05
  79    -0.0092129142978863
  80    -0.0086036614645012
  81     0.009952563571347
  82     0.054604799153979
  83    -0.0032034677408228
  84    0.0042922889276816
  85     0.053965804009527
  86    -0.0039671492976722
  87    0.0052778079983157
  88     0.066378090867912
  89    0.0094119174684887
  90    -0.011923531432959
  91     -0.15387430078638
  92     0.010772262279118
  93    -0.018587384315891
  94     -0.21345230371845
  95    0.0063167841326806
  96    0.00083854961283791
  97    0.0010767201272209
  98    0.00011381329147267
  99    0.00014699413288836
 100    -0.0026571372555806
 101    -0.0022342683764304
 102    -0.00044809982699493
 103    0.00014228320790543
 104    -0.0003103770367441
 105    -0.0079216380590729
 106    -0.0071908686023528
 107    0.0037964961712053
 108     0.053546580962231
 109    -0.054876026227568
 110    0.0020467596772658
 111    0.0070775060557866
 112     -0.06738368840248
 113    0.0025099535888627
 114    0.0087226515490874
 115      0.15803139734359
 116    -0.0058243328830215
 117    -0.020031102634455
 118      0.20979659613197
 119     -0.00702981132735
 120    -0.027414746218498
 121    -0.0024661044458451
 122    -0.00012755005680574
 123    0.00021941393968554
 124    0.0039475286538443
 125    -0.0011245069861604
 126    -7.2193262263912e-05
 127    -0.001700917257131
 128    -0.00074205192222806
 129    0.00079606278634859
 130    0.0017349134955874
 131    -0.010816756397384
 132    -0.010147032774439
 133     0.012942533853067
 134     0.056948342456022
 135    0.0033194596433744
 136    -0.057740985168349
 137     0.013638340600677
 138    0.0041268339417567
 139    -0.071009706172564
 140     0.016814042541711
 141    -0.0084768190673253
 142       0.1660226596547
 143     -0.03848187327608
 144    -0.016839048383929
 145      0.22498163355665
 146    -0.054314011664096
 147    -0.0030586292397689
 148    0.00047903326455415
 149    -0.002448957470247
 150    -0.005662925278195
 151    -0.001521951022604
 152    0.00088598392285173
 153    -0.0013429999889607
 154    0.0015144583076642
 155    0.0015184937719184
 156    0.0022295286563088
 157    -0.015719958255616
 158    -0.015238688483433
 159     0.028622606543054
 160     0.059577426710414
 161    0.0031642258988679
 162    0.0088483528817589
 163    -0.052851747864528
 164    0.0039706581477451
 165     0.010970346584499
 166    -0.065219660840361
 167    -0.0078424252784185
 168    -0.024310279587501
 169      0.15174704959728
 170     -0.01836771301403
 171    -0.039934789331903
 172       0.2180236745519
 173     0.010825770842983
 174    -0.00092991301160094
 175    -0.0037434662564986
 176    -0.00041527152115455
 177    0.0001749524353723
 178    -0.0092165630919088
 179    0.00063598932360583
 180     0.004695222392922
 181    0.00061578414686092
 182    -0.00099738150767402
 183     0.019433592645784
 184    0.0030139488365679
 185     -0.02753066194537
 186    -0.028502968014248
 187    -0.028247430002054
 188    -0.00018869381485048
 189    0.00021917291262442
 190    -0.028586304990366
 191    -0.00019663451751148
 192    0.00022813904810101
 193      0.07490953366623
 194    -0.00060949047353862
 195    0.00034164654506792
 196     0.034794102468339
 197    0.0052230174346357
 198    -0.0065414276533074
 199    0.0019749584918694
 200    -0.0062385196940382
 201    0.00022854926808366
 202    -0.0030007411857848
 203    -0.0054312034345355
 204    -0.0010096962545644
 205    0.0032860874855668
 206    -0.00020697920171858
 207    0.0010545071286958
 208    0.0029299153193888
 209     0.017552480246704
 210     0.017022900147507
 211    -0.031251633424313
 212    -0.076752871239588
 213     0.027455696003234
 214    -0.0055777468919715
 215    -0.002559125805676
 216     0.033885100340936
 217    -0.0068406124262084
 218    -0.0031471580312903
 219      -0.0782950589306
 220     0.017084176768056
 221    0.0076607806367809
 222     -0.12698991598108
 223     0.017067259185364
 224    0.0090358733602801
 225    0.0095748605102877
 226    -0.00051307037849208
 227    -0.00016069319435056
 228    -0.016279008857947
 229    0.0012231912468257
 230    -0.011779374784402
 231    0.00088165957060105
 232    0.00016646209254637
 233     0.019981596959287
 234    -0.0016890967294426
 235    -0.00028333016995982
 236    -0.00027605829545219
 237    0.00042604388848242
 238    0.0010649697722718
 239     0.007905265417223
 240    0.0020658479161232
 241    -0.00041082653098916
 242    0.0097312718374018
 243    0.0025540818930365
 244    -0.00051817520311333
 245    -0.023522577800756
 246    -0.0059323021913391
 247    0.00090529592635786
 248    -0.027263750107503
 249    -0.0083835305750467
 250    0.0031788307954949
 251    -0.00022917553210071
 252    -0.00056477826701259
 253    -0.00020108952735875
 254    -0.00080850839873291
 255    0.0031283851454509
 256    0.00031015301392818
 257    0.00056591198063437
 258    0.00013917201602102
 259    0.00095636925203021
 260    -0.0040427548380614
 261    -0.0011365603175576
 262    -0.0010830268446436
 263    0.0015010324235512
 264    0.0067042996584851
 265    0.0078718028045934
 266    -0.00024805198356498
 267    0.0022912003583095
 268    0.0096904197334019
 269    -0.00029481061820278
 270    0.0028287626417846
 271    -0.023371149502524
 272    0.00095078119387714
 273    -0.0064440921325323
 274    -0.027240760944163
 275    -0.0001417995627562
 276    -0.011645087531424
 277    0.0004625092025421
 278    0.0031627257147904
 279    -9.2327593790119e-05
 280    8.7832691666245e-05
 281    -0.00057557792545559
 282    -0.00019480143290902
 283    -0.0040693017395408
 284    0.00011294018137579
 285    -0.00013441016969233
 286    0.00057534150861104
 287    -0.00089494342703401
 288    -0.00083852636363809
 289    0.0008619060269869
 290    0.0058612908806121
 291    0.0034181997416672
 292    -0.0027636556496138
 293    -0.00013449633759096
 294    0.0042138753718226
 295    -0.0034051386523954
 296    -0.00017025934453433
 297    -0.0099686978652244
 298    0.0079189486493647
 299    0.0002782081149395
 300    -0.012560255335633
 301     0.012354965393472
 302    0.0012079866167849
 303    -0.00025072023853841
 304    -0.00050553620490904
 305    6.5851887663984e-05
 306    -0.00038995825584833
 307    -0.001585986766602
 308    0.00015691867090274
 309    0.00087867375612589
 310    9.3642638607546e-05
 311    0.00019347241368963
 312    0.0020607141280332
 313    -5.6386072727191e-05
 314    -2.6740616212864e-05
 315    -0.00053685318445966
 316    0.0011223841223284
 317    0.0045142749309803
 318    -0.00047138536550061
 319    -0.0019721997873355
 320    0.0055332296403733
 321    -0.00056998248156224
 322    -0.0024359963081769
 323    -0.013748556063215
 324    0.0016120879857565
 325    0.0056198229016658
 326    -0.014079798109727
 327    0.00054239896307659
 328    0.0078562845431626
 329    0.00059571898681412
 330    -0.0016497671602312
 331    -6.0943787632306e-06
 332    -0.00011246700209937
 333    -0.00030222100308145
 334    -0.00064175376017073
 335    0.0021326075060289
 336    -4.2852945275884e-05
 337    0.00027130997096978
 338    0.00053873018915862
 339     -0.28929481030597
 340    -0.043748105705338
 341      0.39957308264521
 342      0.41742459070288
 343     0.017923138926298
 344     0.011678177067057
 345    -0.0091589566607113
 346     0.018130363027383
 347     0.011816927300656
 348    -0.0092676140187432
 349    -0.054318684830957
 350    -0.039391237093234
 351     0.025799176906592
 352     -0.03238306722051
 353    0.0020757067735977
 354     0.021348751387888
 355    0.0036738289030275
 356    0.0068485344511788
 357    -0.0026356361841847
 358    -0.0042861002122625
 359    0.0023341493126944
 360    -0.00038998333204235
 361    -0.0035305162267475
 362    0.00092831448134973
 363    0.00048083827957915
 364     0.001433460494314
 365    0.0081036030272204
 366    0.0073070064124971
 367    -0.003534133371731
 368    -0.055062078474129
 369    -0.060042712188413
 370    -0.013210540623141
 371    -0.0069291389415319
 372    -0.073739115240919
 373    -0.016264064456136
 374    -0.008515185340622
 375      0.17254379745276
 376     0.037556042989965
 377     0.019790679467733
 378      0.22656717299764
 379     0.049964390874178
 380     0.024845724536315
 381    0.0020204166443626
 382    -0.0016352811343718
 383    -0.00034891733136428
 384    -0.0039388956035781
 385    -0.00066007194627623
 386    0.00091712161975759
 387     0.001780437038896
 388    0.00079929374356741
 389    -0.00021192375712263
 390    -0.0019290053193997
 391    0.0087163870160152
 392    0.0080941474336563
 393    -0.0078224105082075
 394    -0.057060452605361
 395    -0.0008863007783841
 396    -0.050322004810537
 397    -0.0037917491565435
 398    -0.0011202588533998
 399    -0.061911432549067
 400    -0.0046600337048082
 401    0.0025765590665836
 402      0.14322669869713
 403     0.010567715885466
 404    0.0028281366756621
 405      0.20384571133761
 406     0.016261095344174
 407    0.0033181136000816
 408    0.00019569430100917
 409    -0.00093036587904024
 410    0.0057153439916496
 411    0.0011832761382626
 412    -0.001338595495852
 413    -0.0003078172625359
 414    0.0003015919070973
 415    -0.0025076183050193
 416    -0.0024848738799678
 417     0.011414351976126
 418     0.010998814275312
 419    -0.018253029696918
 420    -0.055582499233635
 421    -0.00034034433877513
 422    -0.0057877499313212
 423    -0.040037166124254
 424    -0.00041083755733591
 425    -0.0071482222627102
 426    -0.049482449704063
 427    0.0015669410849923
 428     0.016305041072942
 429      0.11326755659916
 430    -0.002263596833785
 431     0.025095046299948
 432      0.17685984060855
 433    -0.010546424878443
 434    0.00044988274333244
 435    -0.0017004406600552
 436    -0.00021454673857015
 437    0.00017451981470694
 438     0.010396544633205
 439    -0.00069742551149088
 440    0.0012268244760659
 441    0.00012418722967217
 442    -0.00013053766450713
 443      0.01543392769689
 444     0.014983782082467
 445    -0.028472581365989
 446    -0.057524520202023
 447    0.0044243486136467
 448     0.051075387502868
 449    -0.0069041795171949
 450    0.0055275663750336
 451     0.063081574027393
 452    -0.0085695430427441
 453    -0.011536226807937
 454     -0.14653291538159
 455     0.018949769326649
 456    -0.022873312168964
 457      -0.2133433472796
 458     0.031076718770913
 459    0.0055913217757083
 460    0.0004195484963824
 461    0.0032887852589895
 462    0.0099517108413608
 463    -0.0015624379021668
 464    -0.0048722247122281
 465    -0.0012351676608748
 466    -0.0042594883710428
 467    -0.008944613134007
 468    0.0017427997420545
 469     0.011599717148097
 470     0.010931916105912
 471    -0.014868325275217
 472    -0.058173640829461
 473    0.0051783810525324
 474    -0.012002481180803
 475     0.058792417690514
 476    0.0064134711275341
 477    -0.014801820822696
 478      0.07231841624701
 479    -0.014007168188764
 480     0.033989487881122
 481     -0.16921628279116
 482    -0.022826132100265
 483     0.047191240972183
 484     -0.23033693280331
 485    -0.0070249996955279
 486    -0.0018941905278195
 487    0.0025451762999093
 488    0.00018290455296405
 489    0.00051242043286585
 490    0.0020953321511721
 491    0.0027668223028221
 492    -0.0020222917164575
 493    -9.2810582809694e-05
 494    -0.0012977219607422
 495    -9.7636568471278e-05
 496    -0.0013607328729844
 497     0.012337691849448
 498    0.0022676747523744
 499    0.0013089781917391
 500    -7.4617178196343e-05
 501    -0.0059146168848599
 502     0.004703548696693
 503    0.0042036420246742
 504    -0.00014318832010556
 505    -0.00019325530778965
 506    -2.5541790955764e-05
 507    0.00030797357486661
 508    -0.00018482258514217
 509    -0.0038616781578456
 510    -0.0070662851059521
 511    -0.029800404729795
 512    -0.0047300827841464
 513    0.0084329326689215
 514    0.0078900914568604
 515    0.0076973424333541
 516    -0.012894149517615
 517    -0.011626436367679
 518    -4.4929297422597e-06
 519    -4.8516295449617e-05
 520    -6.0553312586215e-05
 521    6.690449119395e-05
 522    -8.1410757049954e-05
 523    0.0018471108417875
 524    0.0036704467357336
 525    0.00026958020413427
 526    -6.1017356515104e-05
 527    -0.00014297923626574
 528    0.0011804177917461
 529     0.035983398287481
 530    -0.00047260691338131
 531    0.00097583679925319
 532     0.001031670318616
 533    0.0020680978749161
 534    0.0013943961539457
 535    0.00028473597243223
 536    -0.00017872809103101
 537    -4.76962457581e-05
 538    -0.0015196700344698
 539    -0.008884988441069
 540    -0.00023867683532515
 541    0.00015314224599548
 542    0.00024125568577601
 543    -0.0020640969297752
 544    -0.010626049012865
 545    -0.00037506207211012
 546    0.00022180882867079
 547    0.00026107206066626
 548    0.00077332616413729
 549    0.0030778514111126
 550    0.00031256550129779
 551      0.00017099377912
 552    9.6039772992336e-05
 553    -0.00094943156159734
 554     0.002543338617347
 555    0.0075221145159651
 556    -0.0041347427861384
 557    0.00010683068709374
 558    -0.001584748614553
 559    -0.0026228156098135
 560    -0.0045681214871679
 561    0.0073325548293946
 562    -0.00027375879324329
 563    -0.00025310640993487
 564    0.00018032902601951
 565    -9.6897797660609e-05
 566    4.5272372187223e-06
 567    -0.0014892411744111
 568    -0.0033665181475122
 569    -0.0065243014723237
 570    -0.00058268793619667
 571    0.0040582431044464
 572    -0.0074026638860381
 573    0.0008086671138978
 574    -0.001163757197684
 575    0.0092444857161967
 576    -6.1263025949041e-05
 577    9.9058865600658e-06
 578    -0.00016663330441819
 579    -3.6432610519804e-05
 580    -0.00029002576732873
 581    -0.00063604735264159
 582     0.018313827493562
 583    -0.00063805443366505
 584    0.0012264216014657
 585    -0.0005615401271136
 586    0.0015955138014337
 587    -0.013080254993743
 588    0.00011708121674412
 589    -0.00051963844788677
 590    0.00017401430217947
 591    -0.0027379222560898
 592    0.0073004371227758
 593    0.00032117762217396
 594    0.00042067033958327
 595    -7.0211499498753e-05
 596     0.002339295712084
 597    -0.011563130722305
 598    -5.8527723324721e-05
 599    -0.00020185218832785
 600    -0.00014606345732027
 601    -0.0044590853788569
 602    -0.0068146435078603
 603    0.00023715454912901
 604    0.00024010728830674
 605    0.00018212494955497
 606    0.0016280929105534
 607    0.0048668560815528
 608    -0.00032899782571236
 609    0.00014026358558247
 610    -1.6485639123996e-05
 611    0.0012127477298363
 612    -0.0027744948181821
 613    -0.010006674367111
 614    -0.0022515302400309
 615    -0.0026333464140845
 616    -0.0029372366311532
 617    -0.0020334248318489
 618    0.0029579987019675
 619    -0.0021228849173051
 620    -0.00017886904925999
 621    0.00041186970911693
 622     0.000103707562292
 623    -0.00023019243897308
 624    -2.7215068269897e-05
 625    0.0037219460070641
 626      0.00793370582747
 627     0.020469028028987
 628    -0.0055380519212222
 629    -0.0073177944036555
 630    -0.0049656595114111
 631    0.0019433134071642
 632    0.0037693366340343
 633    0.0022763412110525
 634    -8.4914673905105e-05
 635    -6.9646864343893e-06
 636    -0.00014972053198699
 637    -0.00011108284867346
 638    -0.00025737789816446
 639    -0.0046551033786645
 640    -0.0049459316858686
 641    -4.6661354509649e-05
 642    0.00044385376967047
 643    0.00052463138748124
 644    0.0023352005681045
 645    -0.0081317243541754
 646    -0.0011398146477468
 647    -0.00051429243531333
 648    -0.00088111029062397
 649    0.0030301322824203
 650    -0.015138076442533
 651    -0.00055616917786128
 652    -0.0013853187276296
 653    -0.00089099826592578
 654    0.0027616459217514
 655    0.0080522671727471
 656    -0.0001407715724066
 657    0.00024861898232743
 658    4.212281461507e-06
 659    -0.0025155513496192
 660    0.0040736110596003
 661    7.8992371085321e-05
 662    0.00015874000774062
 663    -0.00038046582442977
 664    0.00077323092300302
 665    0.0012775938818453
 666    3.2563960945808e-05
 667    -0.00028457537862454
 668    -6.9215024890707e-05
 669    0.0009243535507464
 670    -0.002731632036593
 671    -0.0053946117256162
 672    -0.0044353030140885
 673    -0.00066461853795009
 674    0.0016181675496931
 675    -0.0029196934384175
 676    0.0054770344333781
 677    -0.0062762056798317
 678    0.00024097732540296
 679    -0.00033205651432656
 680    -0.00026267591880469
 681    0.00014699061405615
 682    5.711061514248e-05
 683    0.0024801751803271
 684    0.0050613980447722
 685     0.015313786727848
 686    -0.0021782060269735
 687    -0.0051174339524218
 688    0.0082873890151321
 689      0.00251353323105
 690    0.0039440562226671
 691    -0.010390476575847
 692    4.8935307141177e-06
 693    4.4843703802344e-05
 694    0.00019246308018536
 695    2.168246426396e-05
 696    -0.00032603326483599
 697    0.00012967581946331
 698    -0.023015943854807
 699    -0.00088699787384118
 700    -0.0010511983390165
 701    0.00079661217062128
 702    0.0021705273583697
 703    -0.012796873498961
 704    0.00030258121877443
 705    -0.00026179105854298
 706    3.8105045176962e-05
 707    -0.0017091395765044
 708    0.0093213220972136
 709    0.00018610789421654
 710    0.00048770209897035
 711    -0.00017219815109596
 712    -0.0017260714274591
 713    -0.0050349435010562
 714    -0.00032817333187142
 715    -7.7520918144874e-05
 716    -7.702103185681e-06
 717    0.0046792412048008
 718    0.0056034113328814
 719    0.00022245469824834
 720    -0.00029848674571686
 721    -0.00017644507442216
 722    -0.0021640149732207
 723     0.012019494499801
 724    -0.00010841510277041
 725    0.00020611939181821
 726    0.00012900838265009
 727    0.00089341126541143
 728    -0.0027126021039287
 729    -0.0047349601334269
 730    -0.0041090723786517
 731    0.0019161418279632
 732    -8.5373072114545e-05
 733     -0.00260338857016
 734    -0.0073425515135589
 735    0.0052807232687709
 736    -0.00023113291392369
 737    2.7113097391313e-05
 738    -0.00020701970933371
 739    -0.00017616701363248
 740    -0.00027880345208891
 741    0.0013254472529901
 742    0.0032255877834519
 743    0.0038602429328076
 744    -0.00064842705073669
 745    0.0072460200015117
 746    -0.0040290262832288
 747    0.00095726510217985
 748    -0.0087772923852983
 749    0.0016435150919103
 750    -5.7935750853726e-05
 751    -0.00028866218681618
 752    0.00016367916717485
 753    -1.8954122913202e-05
 754    4.5174986913028e-05
 755    0.00045004352285356
 756     -0.01557543145213
 757    -0.0006656499704634
 758    0.0005981778775052
 759    -0.0013243747921301
 760    -0.0013475568049311
 761     0.012835235687166
 762    0.00015131213815205
 763    -0.00018034158462064
 764    0.00054213389970517
 765    0.0027566022442918
 766    -0.0071616866581707
 767    0.00027770916098751
 768    -2.0585609066896e-06
 769    -0.00039349917123987
 770    -0.0023126341152716
 771     0.011413601863205
 772    -8.522631376472e-05
 773    0.00017057220298642
 774    0.00020159235306529
 775    0.0046580504610439
 776    0.0057780734542845
 777    0.00026607716556796
 778    -0.00015474628144319
 779    -0.00029701222238313
 780    -0.0019792357788207
 781    -0.0061158499374979
 782    -0.00036442969969658
 783    -2.9300924250522e-05
 784    -7.8094973079984e-05
 785    -0.00062391903638894
 786    0.0027407011293829
 787    -0.00090935706366242
 788    0.0016252308353531
 789    -5.6907180570704e-05
 790    0.0002669017809315
 791    -0.0081731197518082
 792    0.0035455923104286
 793    -0.001969073630013
 794    -1.6015753582823e-05
 795    -9.6335989151094e-06
 796    0.00019606461604181
 797    -4.3278455644015e-05
 798    -2.3497393209772e-05
 799    -0.00098163220802193
 800    -0.0022018851342734
 801    -0.0038782739442612
 802    0.0018332259964771
 803    0.0029900122005115
 804    0.0010183461747898
 805    -0.0027282463726935
 806    -0.010638106168007
 807    -0.0018335932886926
 808    -8.2399322966573e-05
 809    0.00017823663454523
 810    -2.5810092786574e-05
 811    0.00019556202841516
 812    -7.3976720762965e-05
 813    -0.001419490287582
 814    -0.0068209408032835
 815    0.00037825272100369
 816    2.8905901777232e-05
 817    0.0010058517276673
 818    0.00063510241173609
 819     0.016873182288914
 820    1.5952337749652e-05
 821    -0.0003670503641915
 822    -0.00026999464928123
 823    -0.0015073757479731
 824    0.0062868642697125
 825    0.00013235085209523
 826    -8.8155161195038e-05
 827    -6.4983567400537e-05
 828    0.00053039450976041
 829    -0.0042001532023058
 830    0.00014776401225414
 831    -0.00015489333997595
 832    0.00010567264618862
 833    -0.00091182266298874
 834    -0.0066622227930046
 835    -8.4327349503434e-05
 836    0.00025078608762967
 837    0.00023744076398624
 838    -0.00013795549180417
 839    -0.00082824206781257
 840    0.00036693720592318
 841    -1.443905304285e-05
 842    -0.00018006820012343
 843    0.0021242115727297
 844    -0.0059659002046109
 845    -0.016314096378584
 846    0.0036472211917968
 847    -0.0036456138872176
 848    0.0045462933317139
 849    2.9822837821344e-05
 850     -0.00183165733245
 851    0.00054422834093145
 852    -0.00017777611391902
 853    -0.00026767600712662
 854    0.00035436876823645
 855    4.5001551348545e-05
 856    0.00013955365442964
 857    0.0021550267150206
 858    0.0075689144449123
 859    -0.0086026203948059
 860    0.0043741239472851
 861    -0.0031989210857216
 862    0.0043277217553215
 863     0.001146238100453
 864    -0.0042534623528866
 865    0.0057553471323391
 866    -0.00016225669651579
 867    -0.00039960202197655
 868    0.00051951512890544
 869    4.075211128601e-05
 870    0.00032378902595158
 871    0.0048435497868167
 872     0.001149834245564
 873    0.00089566983908816
 874    -9.2444867442755e-05
 875    0.00096359928932669
 876    0.0038821241957492
 877    0.0041248448675282
 878    0.00088547013834366
 879    -0.0008980241955992
 880    0.00027982162612593
 881    0.0039898071017415
 882    0.0099905474639812
 883    -0.00024154498014353
 884    -0.0004232583366399
 885    0.00085962034340012
 886    -0.0003514991453448
 887    0.0065092687172968
 888    0.00026069056393381
 889    -3.0322108362735e-05
 890    9.5203383173755e-05
 891    0.00079451039736212
 892    0.0074142574683019
 893    7.2577807203546e-06
 894    -0.00030766908170563
 895    -1.3451100230192e-06
 896    0.0012811276780929
 897    0.0054070795888984
 898    6.0231097172974e-05
 899    4.017516311099e-05
 900    0.00030981335740202
 901    -0.00083839399241102
 902    0.0026519918329276
 903    0.0040976189514888
 904    -0.0047269176559338
 905    -0.00073230692413619
 906    0.00057872840562004
 907    -0.0037493703740008
 908    0.0082238948410858
 909    -0.004661340928622
 910    0.00025434571420414
 911    1.3157058691072e-05
 912    0.00021552232137115
 913    0.0001646763468884
 914    -0.00028117577603099
 915    -0.0025227664625732
 916    -0.0050738808536275
 917     -0.01636854038472
 918    -0.0020276321091271
 919    -0.0080413686387165
 920     0.004996947568311
 921    0.0023462932558449
 922     0.009388506424235
 923    -0.0031726786945666
 924    8.7502324853351e-06
 925    -0.00033386568512406
 926    -0.00021046370037383
 927    7.622736248854e-06
 928    5.8863487520487e-05
 929    0.0019194736597485
 930    -0.0087971271073151
 931    0.00016174116410086
 932    0.00014339385460965
 933    -0.00045408490048403
 934    -0.00046257167677653
 935     0.023091552146403
 936    -0.00087684985554176
 937    -0.00080675718116303
 938    0.00098122794503465
 939    -0.0024761231660344
 940     0.013148432807504
 941    0.00030379242153597
 942    -0.00014129555992797
 943    0.00031553577655131
 944    0.0022508264750494
 945    -0.011779754437084
 946    -9.7496279011362e-05
 947    -0.00012536651259359
 948    -0.00022792446707138
 949    0.0011551416174739
 950     0.007995987476184
 951    -0.00034051699081369
 952    -3.289466929696e-05
 953    0.00016267353478757
 954    -0.0041920428418087
 955    -0.0063185479096109
 956    0.00020684303723258
 957    0.00017446689423577
 958    0.00025278463105955
 959    0.00075211636779104
 960    -0.0028312225444755
 961    -0.001276483360877
 962     0.001540480963781
 963    -0.00033064507697258
 964    0.00037901154341507
 965    -0.0030250223616528
 966    0.0013671478682638
 967    -0.0031368616510537
 968    -1.996313286773e-05
 969    -5.9434046581185e-05
 970    -0.00015241011247253
 971    -3.1990773329129e-05
 972    -2.1193610532327e-05
 973    0.00091999055309082
 974    0.0019661660021321
 975    0.0045525019060131
 976    0.0011424373812876
 977    -0.0014891265422485
 978    -0.0039640764444211
 979    -0.00048409580977844
 980    0.0017802026305144
 981     0.012695009684401
 982    7.9334905881821e-05
 983    -0.00014529826796207
 984    3.3671432280704e-05
 985    -0.00017801547504957
 986    0.00017190525474565
 987    0.0016908635996073
 988     0.015279873255308
 989    0.00027580522716051
 990    -0.00089627148457027
 991    0.00011417598159846
 992    -0.00081744420135772
 993    -0.018493831835959
 994    -6.2997519573672e-05
 995    0.00030677907780774
 996    0.00031016558000316
 997    0.0018173884032468
 998    -0.0075253116043262
 999    0.00015728849890838
 1000    5.6462792679277e-05
 1001    0.00013938082200071
 1002    7.7822580445346e-05
 1003    0.0040761187774803
 1004    0.00014602389129479
 1005    -9.653229389186e-05
 1006    0.00016800259660727
 1007    -6.8268760206443e-05
 1008    0.0041560323938986
 1009    -4.2941332134103e-05
 1010    -0.00017313844021364
 1011    -0.00014101946532908
 1012    0.00044237824165079
 1013    0.00027249558687369
 1014    0.00030371145061862
 1015    0.00011687254028881
 1016    -3.2700431996779e-05
 1017    -0.0020087791316975
 1018    0.0055106779532822
 1019     0.016479833079886
 1020    0.0034521469049158
 1021    -0.0041274005369105
 1022    0.0032058396818674
 1023    0.00040900219691249
 1024    -0.00081133343138251
 1025    0.0014016132445839
 1026    -0.00011593095916194
 1027    0.00012196817629541
 1028    -0.00028941573383551
 1029    -0.00016884423019653
 1030    -0.00032172318773806
 1031    -0.0015722447933783
 1032    -0.0065977036816233
 1033     0.013433397522114
 1034    0.0032698305997408
 1035    -0.0032382266089563
 1036    0.0038704610044791
 1037    0.0034169716016697
 1038    -0.0070391500924695
 1039    0.0029874176931679
 1040    -7.1672996553141e-05
 1041    0.00032922578102456
 1042    -0.00047099027279044
 1043    -0.00013832405145477
 1044    -0.00041055025630117
 1045    -0.0049619969712827
 1046    -0.0064471455034067
 1047    0.00069052859221672
 1048    -0.00079186183296884
 1049    8.5332019925813e-05
 1050    -0.0041404324367301
 1051    -0.0062189271230036
 1052    0.00090255797672723
 1053    -0.0002641861789224
 1054    0.00081678982036925
 1055    -0.0042739407062614
 1056    -0.010074289274558
 1057    -0.00018550438442167
 1058    -0.00083169131378241
 1059    0.00044784406669769
 1060    8.2129288006298e-05
 1061    -0.006507249878031
 1062    0.00024350938573369
 1063    -5.9447742788153e-05
 1064    2.7726079477828e-05
 1065    -0.00033323548593411
 1066    -0.0063962136405308
 1067    2.2556826411036e-05
 1068    -1.5009266595818e-05
 1069    0.00025031963607549
 1070    -0.001332196687523
 1071    -0.0055820271052928
 1072    3.207263689804e-05
 1073    -0.00027485976697092
 1074    -3.7780138123937e-05
 Sym= A
 Ene=   -0.1968605276
 Spin= Alpha
 Occup=    2.00000
   1     -0.28120770857469
   2    -0.042810423831672
   3      0.38708306282754
   4      0.41848290130224
   5    -0.0088513424098874
   6    -0.0066796061216474
   7    0.0076885664473461
   8    -0.009037085761319
   9    -0.0067611400168853
  10    0.0077806595174782
  11     0.028867879768046
  12     0.020041923913357
  13    -0.028299450393475
  14     0.029612780451847
  15     0.017313687005011
  16    0.0059371660012134
  17    -0.009504574207748
  18    8.7441598414868e-05
  19    -0.0037831817039808
  20     0.019711667232897
  21    -0.002053854966622
  22    0.0032151383489766
  23    -0.00079449887200039
  24    0.00088793727724716
  25    -0.0070593586571423
  26    0.0020774092845397
  27     0.001074753611405
  28    0.0012628944732264
  29    -0.0051365507223638
  30    -0.0032095691738007
  31    -0.066835536384214
  32    0.0025220026625392
  33    0.00046492869259459
  34    -0.082446671592935
  35    0.0031483471090558
  36    0.00063599830513382
  37       0.1923041591336
  38    -0.0064722890893891
  39    -0.0001524884931915
  40      0.29259885088131
  41    -0.014396951574872
  42    -0.0077066053485589
  43    0.0017417248791937
  44    -0.0021894314635657
  45    0.00033788328695036
  46    -0.0033245809970241
  47    -0.0016384295701848
  48    -0.0027108584623828
  49    0.0019607109371373
  50    2.1550293370238e-05
  51    0.0053198124962779
  52    0.0011163641529098
  53    0.0089192068497735
  54    0.0085503428935331
  55    -0.012031247027719
  56    -0.051671158636846
  57    -0.0043717279249827
  58    -0.029456219581427
  59    -0.0044040914670148
  60    -0.005417367255612
  61    -0.036475465431846
  62    -0.0054553739562227
  63     0.011924932928526
  64     0.082545456479159
  65     0.012076784998233
  66     0.019850202331429
  67      0.14113498950231
  68     0.021460400156372
  69    0.0045735436433808
  70    9.1001823570097e-05
  71    -0.0018301727542625
  72    0.0090032959876564
  73    -0.0020402377047629
  74    -0.0043147810126996
  75    -8.1407623708295e-05
  76    0.0015466405132926
  77    -0.0091621529401577
  78    0.0027033278561591
  79    0.0077552840545522
  80    0.0072340759699012
  81    -0.0066112635694706
  82    -0.054088299601561
  83    -0.0069531789853587
  84    -0.0040088268081107
  85    -0.037605047255722
  86    -0.0085488986685435
  87    -0.0049454067229481
  88    -0.046319861462403
  89      0.02001706241523
  90     0.011021521537708
  91      0.10649741578637
  92       0.0250082470471
  93     0.018208688921046
  94      0.16242661559495
  95    -0.0068658794346533
  96    -0.0023944181046623
  97    -0.0012341072498217
  98    0.00046544457723457
  99    -0.00021846005145766
 100    0.0038202301526628
 101    0.0034850748335078
 102    0.00076376553421509
 103    -0.00045948590198677
 104    0.0004443852393774
 105     0.011767783464624
 106     0.010921659664743
 107    -0.012850359959671
 108    -0.060826537981019
 109      0.06272640940772
 110    -0.0034961349427134
 111    -0.0075255412703088
 112     0.077107674631198
 113    -0.0042963119258587
 114    -0.0092613214888684
 115     -0.18063744174775
 116     0.010094881684093
 117     0.021642510967096
 118     -0.23993374855553
 119      0.01148666534141
 120     0.027984913941331
 121    0.0034927023362085
 122    0.00019143461325906
 123    -0.00021438851988878
 124    -0.0056420045371398
 125    0.0015577136814161
 126    -0.0014475416703862
 127    0.0016146432958168
 128    0.00072510121808677
 129    0.0016152272861549
 130    -0.002643148526191
 131     0.011232781562622
 132     0.010603157676383
 133    -0.014118363111325
 134    -0.058088609771956
 135    -0.0072019114527003
 136     0.047249922485515
 137    -0.010463552311579
 138    -0.0089211034511619
 139     0.058183084312367
 140    -0.012908928671556
 141     0.019747224591763
 142     -0.13525690413357
 143     0.029516258849757
 144     0.030852153096113
 145     -0.19486878393166
 146     0.042789904042707
 147    0.0031060802077229
 148    -0.00056689614416466
 149    0.0025388314327972
 150    0.0062838570754037
 151    0.0026298611286856
 152    -0.0011738415547979
 153    0.0012452610840512
 154    -0.0019675249055876
 155    -0.0025479178231752
 156    -0.0033312498672162
 157     0.014864942339855
 158     0.014419003621676
 159    -0.026198887788633
 160    -0.059779625234834
 161    -0.0057845881994972
 162    -0.0074510719594485
 163     0.043614775680614
 164    -0.0072113275954914
 165    -0.0092651056925665
 166     0.053897118942195
 167     0.015401825090894
 168     0.020192125007034
 169     -0.12462678270189
 170     0.028328455027179
 171     0.035608629319973
 172     -0.19062647582838
 173    -0.010892424475021
 174    0.0023118434001393
 175    0.0036572210473869
 176    0.00079786512033933
 177    -0.00047041366255296
 178    0.0094911829871303
 179    -0.0023810556997776
 180    -0.0045900698232352
 181    -0.0011343754629348
 182    0.0013457405378004
 183      0.20889553692606
 184     0.032681264838728
 185     -0.29127527833594
 186     -0.32947586949921
 187    -9.7028660171594e-05
 188    -0.0022777038124537
 189    -0.00073995671217614
 190    -9.3908966331999e-05
 191    -0.0023059545881025
 192    -0.00073718186492883
 193    0.00080982785069569
 194    0.0042392717441564
 195    0.00089760819086238
 196    -0.0047429068596528
 197    0.0039350154715082
 198    -0.0015436321773426
 199     0.022410600680609
 200    0.0003410590867517
 201    -0.0004482337234002
 202    -0.041007593695467
 203    0.00081960203904324
 204    -0.0070223253539242
 205    -0.00059100928245791
 206    0.0010164785515959
 207     0.012604382462733
 208    5.703451994855e-05
 209    0.00023081902482711
 210    0.00037227446891994
 211    -0.0021661314800287
 212    -0.00099064980223252
 213     0.065560123342811
 214     0.001090797227771
 215    0.0027018064610177
 216     0.080859298795757
 217    0.0013808707302554
 218    0.0033361228496793
 219     -0.18814218472519
 220    -0.0025068892998245
 221    -0.0076307614380146
 222     -0.29052378180764
 223    -0.0076156433055827
 224    -0.011936699822584
 225    0.0012152863470514
 226    0.00099208518629119
 227    9.8835724240517e-05
 228    -0.0019462706071875
 229    0.0017645701818088
 230    -0.0022426274595085
 231    -0.00035325767355489
 232    -0.00020153353641046
 233    0.0035228133367447
 234    -0.0017536052346342
 235    -0.0050702763235485
 236    -0.0048026547695202
 237    0.0044447716670686
 238     0.036606987450547
 239    -0.00023706482880774
 240      0.01828842128364
 241    -0.0028121424265457
 242    -0.00029115606306674
 243     0.022669740075094
 244    -0.0034710171900379
 245    0.00065957946817749
 246    -0.050917784410137
 247    0.0081535717075587
 248     0.001471706626582
 249    -0.093789972706927
 250     0.011964798109283
 251    -0.0022685386846119
 252    2.8887393983703e-05
 253    -0.0012146163917777
 254    -0.0074020265004347
 255    -0.00033150924635645
 256    0.0016379039381756
 257    0.00010651961850655
 258    0.0011963217339662
 259    0.0073089175610919
 260    0.00028089925068408
 261    -0.0052016538959992
 262    -0.0049315051818851
 263    0.0047360969093199
 264     0.037428571166048
 265    6.7085473367913e-05
 266    -0.0028464735209404
 267     0.018486898131303
 268    8.5811933187509e-05
 269    -0.0035116536791901
 270     0.022920264598758
 271    -0.00010553054433681
 272    0.0082623175978447
 273     -0.05140874563997
 274    -0.00083772450404214
 275     0.012066112845266
 276    -0.095013068727813
 277    0.0075413673489197
 278    0.00041521774288991
 279    -0.0012511311835196
 280    -0.0017841574548547
 281    -4.9794491231906e-05
 282    -0.0071877593520432
 283    -0.00049328988673902
 284     0.001219259257511
 285    0.0022738593614758
 286    -4.9198492048408e-05
 287    -0.0073861287301928
 288    -0.0069469320095934
 289    0.0077838085895141
 290     0.043284460306706
 291    0.00034168769165458
 292    -0.024249976473191
 293    -0.0019499848210197
 294    0.00044139442521665
 295    -0.029983410733538
 296    -0.002435179466643
 297    -0.0006338452830711
 298     0.068366680288098
 299    0.0050518843953659
 300    -0.0027529623532387
 301      0.11273390113933
 302     0.010849393427763
 303    -0.0028611871145511
 304    -9.6717301464957e-06
 305    0.0010076573058576
 306    -0.0058135575121392
 307    -0.00023022047837059
 308    0.0018251448133908
 309    1.4289460784644e-05
 310    -0.00082433457615289
 311    0.0049230963053912
 312    0.00028784382580325
 313    -0.0074422219564882
 314    -0.0069443888161374
 315    0.0066484781850437
 316     0.045945758863275
 317     0.001248644732389
 318    -0.0018450797157615
 319    -0.025850841799305
 320     0.001519382017739
 321    -0.0022818630626126
 322    -0.031943936997035
 323    -0.0040111801227799
 324    0.0051424920946678
 325     0.072891587164337
 326    -0.0030945464907134
 327    0.0085382102987543
 328      0.11904432268909
 329    0.0066371015599888
 330    -9.02392945433e-05
 331    0.00072071408131221
 332    -0.00051408210173855
 333    4.421930120464e-05
 334    -0.0051709794562758
 335    -9.629127591158e-05
 336    -0.00043057389712163
 337     0.001066457163635
 338    -2.6212230254062e-05
 339     -0.26056117597349
 340    -0.039755900773926
 341      0.35905743305898
 342      0.38924056697821
 343    0.0027035898082199
 344    0.0093520622889718
 345    -0.0063489954098248
 346    0.0027858550545486
 347    0.0094727137331912
 348    -0.0064411469234965
 349    -0.013996875376861
 350    -0.032205852344179
 351     0.017256565082302
 352    -0.021072842215262
 353    0.0028033431147783
 354     0.020654390859457
 355     -0.01069089428369
 356    0.0037699945212223
 357    -0.0022815873263984
 358     0.021845578468783
 359    0.0028562503434488
 360    0.0046930841469133
 361    -0.0022233518126252
 362    0.00071700821894003
 363    -0.0084272042468111
 364    -8.746255684688e-05
 365     0.010805329230125
 366    0.0099987244302592
 367    -0.011737279705572
 368    -0.055588710360751
 369    -0.059980421068532
 370    -0.012272008629801
 371    -0.0076273889600475
 372    -0.073737771958042
 373    -0.015103971295374
 374    -0.009382771017149
 375      0.17241068073425
 376     0.035148332334189
 377     0.021879978735406
 378      0.22741385433117
 379     0.045931893828986
 380      0.02703244872535
 381    0.0026557993206749
 382    -0.0019937643355698
 383    -0.00034932021079952
 384    -0.005063842846549
 385    -0.00086891740527954
 386    -0.00033998241621382
 387    0.0025898451051333
 388    0.00076645100767363
 389    0.0020077267724709
 390    -0.0013378417687227
 391    0.0066850716432087
 392    0.0061917492202734
 393    -0.0043151107892375
 394    -0.050853876102843
 395    0.0064672572447174
 396    -0.031986269591247
 397    -0.0031287302745551
 398    0.0079465007875531
 399    -0.039410201069316
 400    -0.0038590615647562
 401    -0.018819955160736
 402     0.090378433739877
 403    0.0086028761368045
 404    -0.022990874075051
 405      0.14175310640415
 406     0.014202804316661
 407    0.0027732241885808
 408    0.00025853332269401
 409    -0.00095845740660849
 410    0.0056728842159961
 411    0.0023961782777787
 412    -0.001427767142264
 413    -0.00043637093299422
 414    0.00054519133506873
 415    -0.0031662117703376
 416    -0.0034000057247204
 417    0.0084006814441692
 418    0.0080238927721128
 419    -0.010495379253322
 420    -0.051172810048583
 421    0.0042209143355929
 422    -0.0035497365800147
 423    -0.027399745298412
 424    0.0052164930359692
 425    -0.0043819076756341
 426     -0.03393009178508
 427    -0.011863068424306
 428     0.010008419678924
 429     0.076731469159652
 430    -0.017922686186766
 431     0.015847160374927
 432      0.13257526429604
 433    -0.0093418223332632
 434    0.0021536906287939
 435    -0.0014710623934991
 436    0.00064108888371916
 437    6.8565143301093e-05
 438    0.0092158534399566
 439    -0.0028137246059069
 440    0.0012808336561198
 441    -0.00093356259812316
 442    -1.3443018840106e-06
 443     0.013325348000665
 444     0.012972094972827
 445    -0.024451894633849
 446    -0.051554426860248
 447    0.0061608929056205
 448     0.037922163870072
 449    -0.0056600140679365
 450    0.0076859982239338
 451     0.046900370345764
 452    -0.0070364165485883
 453    -0.016436380222036
 454     -0.10831939072239
 455     0.015528509807064
 456    -0.029970496819744
 457     -0.16768359628729
 458     0.026031636728549
 459    0.0046476462635784
 460    0.00053709674568711
 461    0.0028506344224807
 462    0.0090400070295324
 463    -0.0027567855921784
 464    -0.0039586606607023
 465    -0.0012740840893072
 466    -0.0036961635180762
 467    -0.0082737819360633
 468    0.0032773502201452
 469     0.010699194714109
 470     0.010110350053518
 471    -0.013579739224403
 472    -0.054427515694604
 473    0.0082038894417152
 474    -0.0083418819361291
 475     0.043202756494489
 476     0.010138484445441
 477    -0.010301407053497
 478     0.053213142979221
 479    -0.023123396039728
 480       0.0235042346836
 481     -0.12373080544551
 482    -0.032619291218948
 483     0.034142390339581
 484     -0.17961791555685
 485    -0.0067455394824919
 486    -0.0028557645750419
 487    0.0023232366693551
 488    0.00037619247174052
 489    0.00055951133510392
 490    0.0027653717434339
 491    0.0036910741671683
 492    -0.0020777453939048
 493    -0.0002648760652617
 494    -0.001200633865403
 495    -0.0010544307947867
 496    0.0052081222034861
 497    -0.0073038017811833
 498    0.0027282170948298
 499     0.001845435236433
 500    0.0024960111039819
 501    0.0085467633270383
 502    -0.0045387248729294
 503    -0.0040323052137289
 504    4.2534244205184e-05
 505    0.00038259944449673
 506    0.00015715328476381
 507    -0.00010010764864447
 508    0.00037557701676364
 509    0.00050016785312314
 510    -0.000676097399593
 511     0.016515508389153
 512    0.0077756577319517
 513    -0.0026463101973843
 514    -0.0024259467202795
 515    -0.0058453080562371
 516    0.0098572083131941
 517    0.0093611796298352
 518    -3.7242853685773e-05
 519    0.0004193864251392
 520    0.00022644003535386
 521    3.9061820667104e-05
 522    0.00043168965639741
 523    -0.0035056729478495
 524    -0.00018669566153759
 525    0.00030853403543608
 526    0.00065977044908733
 527    6.2910202922182e-05
 528    -0.0044752768283925
 529      -0.0236455656838
 530     0.001063784158967
 531    -0.00014006184088047
 532    -0.00017254181530938
 533    -0.0036346447159512
 534    0.00085720750117255
 535    0.00026496071307552
 536    3.6922723167317e-05
 537    0.00061474030662315
 538    0.0010426136890976
 539    0.0072681236596502
 540    0.00031329905466061
 541    7.3036366549294e-05
 542    -0.00011044883826382
 543    0.0011521769344109
 544    0.0080385494424424
 545    0.00036730756442133
 546    -9.6582832716925e-05
 547    4.5410485101048e-05
 548    -0.0016420639090875
 549    -0.0073022241211032
 550    -2.3112001372322e-05
 551    -0.00018875782608444
 552    -0.00016344159898786
 553    0.0012241275914649
 554    -0.0041539714745847
 555    -0.0035583345984654
 556    0.0023918793332855
 557    6.9230506560067e-05
 558    0.0045185191512171
 559    4.6854764972265e-05
 560    0.0079023912323146
 561    -0.0015708202485222
 562    0.00026222005500064
 563    0.00025045383551954
 564    -0.00019713683665258
 565    0.00027312609039463
 566    2.448594197772e-05
 567    -0.00053059954213469
 568    -0.00019398229568752
 569    -0.011581996291282
 570    0.0036282135039857
 571    0.00073726818864144
 572    0.0054494870190756
 573    -0.0039320381597674
 574    -0.0041945008693769
 575    -0.010095756400428
 576    2.5739443313146e-05
 577    -8.1968836886953e-05
 578    5.8200871702262e-05
 579    1.2360478758944e-05
 580    0.00033680576620265
 581    -0.00047851568559306
 582    -0.011644513130507
 583    0.00053737595474745
 584    -0.0013046696259201
 585    0.00059967248274569
 586    0.0015534851709963
 587     0.012135533193228
 588    -3.5803080815447e-05
 589    0.00030863378456674
 590    -0.00036023411292753
 591    0.0026082096678898
 592    0.0080180644529404
 593    0.00029131347782871
 594    9.3788802293162e-05
 595    -0.00039379004137571
 596    -0.0019292887661118
 597     0.010553123957667
 598    5.1520673638333e-05
 599    0.00016893996434995
 600    0.00022560284593296
 601    0.0049008047650808
 602    0.0015543308862271
 603    -0.00019776301741296
 604    -0.00049365348011315
 605    -0.00010248835982452
 606    -0.0027628775702037
 607    -0.00035402233693488
 608    0.0004097103301104
 609    0.00035448751798716
 610    -0.00019193411026892
 611    7.4924311000955e-05
 612    4.0605045466498e-05
 613    -0.0014442963588385
 614    -0.0040387793853988
 615    -0.00067822230514258
 616    0.0001841798264107
 617    -0.0017149796984965
 618    0.0024321812424574
 619    -0.0011167372630962
 620    0.0001507004945785
 621    0.00056091522779059
 622    5.0610487220525e-05
 623    -0.00015416411280055
 624    1.4809505642296e-05
 625    0.00034838081406332
 626    0.0009374207039926
 627    0.0013153349481099
 628    -0.0094420292407716
 629    -0.00074675306539205
 630    -0.0010274550739721
 631    0.0035802611081808
 632    -0.0019501978769498
 633    0.0011258338898566
 634    9.2296923545157e-05
 635    -0.0001276497898195
 636    -1.8166611839741e-05
 637    1.549783418473e-05
 638    -0.00036148654726507
 639    -0.0056242075990952
 640    0.0022138986263691
 641    -0.00090578929336615
 642    0.00061708365439722
 643    0.0010618239561261
 644    0.0040299933294113
 645    -0.0053604234592688
 646    -0.00081437442763456
 647    -0.00068984279825672
 648    -0.0010785041318132
 649    0.00075056837471726
 650    0.0012148908079065
 651    -0.0010837210540644
 652    -0.00036747626018876
 653    -0.0002684184526927
 654    0.00089993567289734
 655    0.0028148353799699
 656    -0.00026092958698285
 657    6.5700581737964e-05
 658    8.5241463200997e-05
 659    -0.0034050419111738
 660    0.00036316698435541
 661    0.00012125296188501
 662    0.00034613338594877
 663    -0.0002934259220907
 664    0.0020268088645894
 665    -0.0016942036829286
 666    7.0421372643588e-05
 667    -0.00028459572097037
 668    0.00012232726314943
 669    0.0011561608315387
 670    -0.0038392986031969
 671    -0.0041674091988787
 672    -0.0026058889037454
 673    -0.00063833681184936
 674    0.0041468954131396
 675    0.00013825355334483
 676    0.0079541961469095
 677    8.0130980849695e-05
 678    0.0002017306836968
 679    -0.00029163366744839
 680    -0.00024905051512827
 681    0.0002443173311261
 682    2.485136996039e-05
 683    0.00047187865240212
 684    0.0015014241233289
 685    -0.0024426775499017
 686    -0.0042384580142627
 687    -0.00076241712449902
 688    0.0058975881647278
 689    0.0054721024025575
 690    -0.0013955392186155
 691    -0.011129682514132
 692    -1.3831928452762e-05
 693    7.3285565638149e-05
 694    6.7575343049271e-05
 695    1.0044759043801e-05
 696    -0.00034357799422452
 697    -0.00096493332000757
 698    -0.017422739475676
 699    -0.00059936567562806
 700    -0.0010745532704899
 701    0.00071385588565145
 702    0.0023315740892803
 703    0.0030917749446533
 704    -0.0002745031800658
 705    7.9847015728438e-05
 706    -0.00038965897176825
 707    0.0011364297216234
 708    0.0090827143440836
 709    9.0260057193968e-05
 710    0.00028635865067598
 711    -0.00034350336397998
 712    -0.0026396397014866
 713    0.0020454883931632
 714    -0.00032833480845028
 715    0.00035390735034655
 716    -0.0001421550453721
 717    0.0047170469398135
 718    0.0010066239440801
 719    0.0001639410423049
 720    -0.00051994950601521
 721    -0.00011570609842249
 722    -0.0015190650872699
 723     0.010561179886086
 724    -0.00010788475728386
 725    0.00015144112158286
 726    0.00018217883649611
 727    0.00097971087133709
 728    -0.0035207979083026
 729    -0.0018846060688957
 730    -0.0023644988470407
 731    0.0038191986950298
 732    7.9540955361514e-05
 733    -9.2374095326826e-06
 734    -0.0016382936898822
 735    0.0077547496140934
 736    -0.00032164444730012
 737    -7.6175184438371e-06
 738    -0.00019669056285394
 739    -6.3723271684729e-05
 740    -0.00024554131921973
 741    -0.00059751955123443
 742    -0.00018772095844055
 743    -0.013062995489358
 744    -0.0033082421762177
 745    0.0045086772721646
 746    0.00049589365401909
 747    0.0037417383243613
 748    -0.008290174388853
 749    -0.0033337433131957
 750    -2.0874780677913e-05
 751    -0.00029226525145793
 752    6.4866459306179e-05
 753    -1.1670095037507e-06
 754    0.00010376785948144
 755    -0.00056405993124417
 756    -0.0077420451879983
 757    -0.00049385407614604
 758    0.00057574174495168
 759    -0.0012553197896102
 760    0.0016341292667168
 761     0.010650025330154
 762    5.4951260637616e-05
 763    -0.00033635421486771
 764    0.00029756279078882
 765    0.0023776978116324
 766    0.0076915783703067
 767    -0.00026958847396465
 768    -0.00038304077836354
 769    6.360365845336e-05
 770    -0.0016496997179382
 771    0.0093944318481525
 772    -7.7878747698942e-05
 773    0.00019794719813766
 774    0.00014408845503631
 775    0.0044179075131946
 776    0.00092075549365208
 777    0.00017272416362538
 778    -8.6677765281329e-05
 779    -0.00047514233119863
 780    -0.0026403028833046
 781    -0.00054165388437061
 782    -0.00033851150776648
 783    -0.0001379138927318
 784    0.00037168416528081
 785    0.0019621310155579
 786    -0.0032859590782394
 787    -0.017221772626566
 788    0.0009022392567344
 789    0.0043987463829962
 790    0.0040606751535505
 791    -0.0094930144977482
 792    0.0050245669311818
 793    -0.00010367438065899
 794    -7.1327397486545e-05
 795    0.00022780208481307
 796    0.00040791865786684
 797    4.4081967170464e-06
 798    7.3837933612351e-05
 799    -0.00030426208661656
 800    -0.00077379548461091
 801    0.0014680922157457
 802    0.0038316108837059
 803    0.0032383083272555
 804    0.0020074626749809
 805     -0.00688981672889
 806    -0.0080996317007417
 807    -0.0023564444637441
 808    -0.00013336598504462
 809    5.4715152418584e-05
 810    -0.00012257927125615
 811    0.0002736308143124
 812    -0.00018194361171064
 813    0.00011138721522584
 814    -0.0029285107581015
 815    0.00023311037202381
 816    0.00012644987864463
 817    0.00085342744953273
 818    -0.00031317427111836
 819     0.012856867168085
 820    5.6407821590558e-05
 821    -0.00028946202388497
 822    -0.0004541837338629
 823    -0.0021793028163625
 824    0.0034426928809668
 825    9.0137475668864e-06
 826    -0.00022292536840543
 827    4.1194960089682e-05
 828    -0.0018887043986269
 829    0.0049334667544613
 830    -0.00013076747084716
 831    -0.00035503027126817
 832    -0.00055831817946281
 833    0.00089295287234079
 834    -0.0038776321187184
 835    6.3961469513746e-05
 836    0.00031772423062616
 837    0.00039226525703425
 838    -0.0020202311801633
 839     0.005912439844468
 840    5.5918320695824e-05
 841    -0.00065716831800662
 842    -0.00035347761527996
 843    0.0018751691487243
 844    -0.0053456172879441
 845    -0.013931822421578
 846    0.0032536771259826
 847    -0.0033854919237817
 848    0.0042060948457873
 849    0.00080954094669398
 850    -0.0016137779127311
 851    0.00050638888942583
 852    -0.0001805954588656
 853    -0.00022084392804875
 854    0.00030869719374626
 855    3.5895030791054e-05
 856    9.4378636307468e-05
 857    0.0024417851849964
 858    0.0075155364040855
 859    -0.0025280076990994
 860     0.005164979962989
 861    -0.0033740963042246
 862    0.0032231832999639
 863    -0.0020867467924899
 864    -0.002879230977259
 865    0.0062015543967944
 866    -0.00014321370299541
 867    -0.00033776210383244
 868    0.00044220273322519
 869    5.5985836498384e-05
 870    0.00028660805083162
 871     0.003577755329477
 872    -0.0013324017214375
 873     0.000750499197791
 874    4.4050809073162e-05
 875    0.00090780407090674
 876    0.0025130686732595
 877    -0.0016304178853186
 878    0.0008174749190624
 879    -0.00097473431469958
 880    0.00012351394076818
 881    0.0035311019077423
 882    0.0096852825752058
 883    -8.8565937542286e-05
 884    -0.00042209290562473
 885    0.00086476805777072
 886    -0.00026761479046736
 887    0.0058837554739855
 888    0.00023295370085166
 889    -2.2692342788576e-05
 890    6.4289391244988e-05
 891    0.00061654649053099
 892    0.0062445650291292
 893    3.3047259946537e-06
 894    -0.00027545273395415
 895    2.3870521872241e-05
 896     0.001258615563957
 897    0.0046082643585936
 898    4.4620907059283e-05
 899    6.8901030309276e-06
 900    0.00029839820241429
 901    0.0013311495309528
 902    -0.0044111288616812
 903    -0.0048695320044901
 904    0.0028815204344674
 905    0.0045109624694335
 906    -0.00077483691655669
 907    -3.7156413312145e-05
 908    -0.00051700809641252
 909     0.008290052228633
 910    -0.00034687398837655
 911    4.6749136337658e-05
 912    -0.00024897553592744
 913    -8.7725700823888e-05
 914    0.00031109869334461
 915    0.00054764627214243
 916    0.0017624110405765
 917    -0.0026722634805712
 918    0.0045549982116022
 919    0.0065893376236428
 920    -0.00073445233321231
 921    -0.005403248809424
 922    -0.011707912451286
 923    -0.0025823034523748
 924    -4.2442846013197e-07
 925    0.00039352138644379
 926    8.8126953759093e-05
 927    4.4555749815411e-07
 928    -8.8544990142717e-05
 929    0.0010978810787091
 930    0.0098621455272537
 931    -8.4208727144503e-05
 932    -0.00037376863118615
 933    0.00031620051229985
 934    -0.00060621195313749
 935    -0.018665571352583
 936    0.0007036282145176
 937    0.00083932818623012
 938    -0.0011496527281845
 939    0.0028421792844386
 940    0.0033773085836514
 941    0.0003014612985571
 942    -0.00032982721596549
 943    -4.4185144514899e-06
 944    -0.0014983639875617
 945     0.011717003198804
 946    0.00011763696825485
 947    0.00021758170309807
 948    0.00019032460603544
 949    -0.0027697970258448
 950    0.0013799007954691
 951    0.00037995907253521
 952    -0.00018355078168661
 953    0.00036326629549412
 954    0.0049792828101635
 955    0.0014331052790405
 956    -0.00017379815621228
 957    -0.00011375841031903
 958    -0.00056268419518973
 959    0.0018459151080809
 960    -0.0031570384413071
 961    -0.015949796615244
 962    -0.0019610421377626
 963    0.0049423400845746
 964    0.0046704449098739
 965    0.0036595591551638
 966    0.0013689755897537
 967    0.0040732576259889
 968    3.633710059144e-05
 969    -1.30135713395e-05
 970    0.00039340012959284
 971    0.00011120470098855
 972    -0.00023451805072007
 973    -0.00045127310550578
 974    -0.00083694656941423
 975    -0.0016781414545231
 976    -0.0034106758389873
 977    0.0023590219353444
 978    0.0042514522981396
 979    0.0047561763211425
 980    -0.0016002567169675
 981    -0.0096854875591323
 982    -0.00012056730008184
 983    0.00027500203382457
 984    -0.00014860696439333
 985    0.00027199347256924
 986    -2.229522512613e-05
 987    -0.00019775148970734
 988    -0.009724949455713
 989    -0.00017451682381497
 990    0.0010187978821746
 991    0.00014584403082726
 992    -0.00016827543719665
 993     0.015955333188209
 994    -1.7906785363152e-05
 995    -0.0005923712357621
 996    -0.00027475626535972
 997    -0.0027174206379906
 998    0.0048918631524395
 999    -3.6080307985069e-05
 1000    6.402865876359e-05
 1001    -0.00033715970267068
 1002    -0.0026561447908529
 1003     0.005481389870245
 1004    0.00015339949234624
 1005    -0.00063622005279824
 1006    -0.00041859333211442
 1007    0.0025569401507314
 1008    0.00031377095645029
 1009    -0.00023213750062502
 1010    0.0003654390529128
 1011    0.00016731024211235
 1012    -0.0028438533069724
 1013    0.0057868492971393
 1014    3.3807801337918e-05
 1015    -0.00033285876998585
 1016    -0.00062146241654855
 1017    0.0020187753935524
 1018    -0.0056873740824138
 1019    -0.015520625003978
 1020    -0.0035876339045023
 1021    0.0044556750062337
 1022    -0.003368069934243
 1023    -0.0012625176589004
 1024    0.00084811386544792
 1025    -0.0012219155717601
 1026    0.00012628925249935
 1027    -9.2997588355789e-05
 1028    0.00029087845032301
 1029    0.00019309167895752
 1030    0.00029739540894772
 1031    0.0022922908882227
 1032    0.0076620303554071
 1033    -0.0064878947947012
 1034    -0.0050655778365782
 1035    0.0026661199217373
 1036    -0.0043561961112992
 1037    0.0007494381537078
 1038    0.0080300991233943
 1039    -0.0022437188877238
 1040    5.0863076631478e-05
 1041    -0.00033290894313304
 1042    0.00046009499796108
 1043    0.00015222405719372
 1044    0.00039410671544789
 1045    0.0040745923720472
 1046     0.002609102950648
 1047    -0.00067412248101109
 1048    0.00087569992055725
 1049     3.37195671345e-05
 1050    0.0031068620792227
 1051    -0.00046627538578347
 1052    -0.00092802761545785
 1053    0.00012724264502338
 1054    -0.0010545941769065
 1055    0.0042326545130816
 1056     0.011087645689235
 1057    3.1960544329504e-05
 1058    0.00094309305825542
 1059    -0.00050100540758225
 1060    -8.9691874774559e-05
 1061    0.0066056180499404
 1062    -0.00024880219251247
 1063    4.2113603775941e-05
 1064    -2.3485145255946e-05
 1065    0.00034520821005118
 1066    0.0058657672561015
 1067    -2.5753060471214e-05
 1068    4.8013917817464e-05
 1069    -0.00026285241547657
 1070    0.0014444887712437
 1071    0.0054880912061863
 1072    -2.5778588501021e-05
 1073    0.0003108933014741
 1074    9.9122406606639e-06
 Sym= A
 Ene=               0
 Spin= Alpha
 Occup=    0.00000
   1     0.046780354973663
   2    0.0086196996154573
   3    -0.070567495905256
   4    -0.081213935077604
   5    -0.084615081586149
   6    -0.024541434663788
   7    -0.024104491518494
   8    -0.088877299783498
   9    -0.025549681943954
  10    -0.025254607940516
  11      0.25635599274138
  12     0.075615284514653
  13     0.076958506260685
  14      0.33873752764467
  15     0.099963357156884
  16     0.090223046417707
  17     0.017999723911485
  18    0.0026840447344856
  19    0.0035058149713652
  20    -0.027138046296699
  21    0.0015613384562528
  22    -0.0085925096288798
  23    -0.00021866184051632
  24    -0.00072121931571981
  25     0.011846812967112
  26    -0.00088523482545985
  27     0.064776223034364
  28      0.13709602066118
  29     -0.32337038941744
  30     -0.20408336822626
  31     0.027545944524985
  32    -0.011868677870936
  33    -0.0088296792079657
  34     0.035827495348753
  35     -0.01551667955599
  36    -0.011292462117393
  37    -0.099017330437295
  38     0.043101205532959
  39     0.031181727674819
  40     -0.11727560149752
  41     0.049705718898417
  42     0.037102865127389
  43    0.0089791982155542
  44    0.0025016147924739
  45    0.00037275964168451
  46    -0.014948150971388
  47     0.003757610525548
  48    0.0069815909292587
  49     0.002912290192821
  50    -0.0019672629112178
  51    -0.012608471615098
  52    0.0041085294564683
  53     0.010189729580239
  54      0.01983277848506
  55    -0.051196390470127
  56    -0.017016911590029
  57      0.01176788388726
  58    -0.011338056451954
  59    0.00087256390824301
  60     0.014294458730023
  61     -0.01548486041332
  62    0.00085886423910108
  63    -0.041730234475224
  64     0.044756602994486
  65    -0.0038827450531024
  66    -0.038224407253018
  67      0.03879468086875
  68    3.6613561573429e-05
  69    0.0012123323293388
  70    0.00017577133049941
  71    0.00072413853626993
  72    0.00048538241016385
  73    0.0037592670566203
  74    0.0012384660494356
  75    0.0004850648950888
  76    -0.00049107715488987
  77    0.0043987662922153
  78    0.0022609371049109
  79    0.0099913446411121
  80      0.02002185545734
  81    -0.051553772084384
  82     -0.01527111017381
  83     0.013574539298746
  84    0.0014571597035836
  85    -0.013215044011906
  86     0.016698563326406
  87    0.0017300618984356
  88    -0.017693813505342
  89    -0.047531073397659
  90    -0.005159985048783
  91     0.050578164003717
  92     -0.04529753559823
  93    -0.0051870426739041
  94     0.042605733721658
  95    -0.0012760660276622
  96     0.003567606885755
  97    0.00052134822500948
  98    -0.00038923830942869
  99    0.00056859710596998
 100    -0.0040815197948589
 101    0.0031711644135129
 102    0.00020559580339311
 103    0.00021051636540051
 104    -4.4156158215719e-06
 105    -0.031991653320176
 106    -0.060422771587167
 107      0.14251376423137
 108     0.094140318424234
 109    -0.041118095565114
 110     0.008346499714684
 111    0.0082767209298978
 112    -0.055669481322301
 113     0.010240942969137
 114     0.010713654106951
 115      0.14931890477679
 116    -0.030355103661841
 117    -0.028886227645659
 118      0.17316422073925
 119    -0.024521621504339
 120    -0.032513330432772
 121    -0.0037820918960134
 122    -0.0011256899904144
 123    0.00069668186996092
 124    0.0059567397172775
 125    -0.0029449758817763
 126    -0.0030623923016871
 127    -0.004560596675234
 128    -0.0012366414243307
 129    0.0067665684906769
 130    -0.00032240009003971
 131    -0.0065284228295566
 132     -0.01076851603529
 133     0.020532482414891
 134     0.030448352610674
 135     0.017033034817607
 136    -0.0060411540287512
 137    0.0050805475675668
 138     0.020390045952598
 139    -0.0084395585697844
 140    0.0065345281370174
 141    -0.060521323681507
 142     0.019552187453482
 143    -0.017980114457476
 144    -0.052182174166111
 145     0.038998748984394
 146    -0.019488548599506
 147    -0.000687283782886
 148    0.0012146435390586
 149    -0.0014848286772048
 150    -0.0010339000497467
 151    -0.0045338076887153
 152    -0.0002609669044843
 153    -0.00035047696986905
 154    -0.0013501816190492
 155    -0.000231163011668
 156    -0.0039160107522729
 157    -0.0056306329819903
 158    -0.0097511523657209
 159      0.01794160541646
 160     0.027558808157967
 161     0.015362068061497
 162     0.005127379348723
 163    -0.0052797983624422
 164     0.018472210256761
 165    0.0065071482251587
 166    -0.007448911180377
 167    -0.054844951430971
 168    -0.017945513209013
 169     0.017196926667541
 170    -0.048782908767798
 171    -0.020377362312065
 172     0.035343686698406
 173     0.001944399237798
 174    -0.004362749895742
 175    -0.0017453252001069
 176    -0.00052922895284679
 177    0.0016840268402724
 178    -0.0012672194634684
 179    -0.0039457918084204
 180    -0.00099156057026662
 181    0.0013318086156506
 182    -0.0013377206111424
 183    -0.0037397681171088
 184    -0.00085215675488303
 185    0.0074739525061994
 186     0.003009594152648
 187      0.13413797486344
 188     0.041657130460185
 189     0.016317200134519
 190      0.14127707774136
 191     0.043871715669782
 192     0.017197651006296
 193      -0.4124271016689
 194     -0.13057754304619
 195    -0.051516523809862
 196      -0.5697988765689
 197     -0.17759570392889
 198    -0.067736075059484
 199    0.00018540766554769
 200    -0.0044312245439371
 201    0.0028455841103157
 202    0.0023775977407854
 203    -0.0045362172882888
 204    9.9811481127722e-05
 205    -0.00013680210818586
 206    -1.0837185539866e-05
 207    -0.0016061616969931
 208    0.0005863284605533
 209    -0.074752628399425
 210     -0.16029656536605
 211      0.38065912484212
 212      0.23212292342761
 213     0.020520221838263
 214    -0.0015796432649739
 215    0.0036839359606251
 216     0.026517480498284
 217    -0.0024560404320561
 218    0.0046896651055325
 219    -0.073970751965517
 220    0.0076183496696142
 221    -0.012551024906576
 222    -0.088529303597088
 223    0.0046077583240913
 224    -0.018026780235737
 225    -0.010586437700277
 226    0.0015334514251721
 227    -0.00025476631143387
 228     0.018200820042027
 229    0.00039990018869323
 230    -0.008566426052522
 231    0.0013003464191989
 232    0.00047376116016484
 233     0.015788609487636
 234    -0.00040497531610256
 235    -0.013303063641081
 236    -0.026261655374638
 237     0.062646701053088
 238     0.038613301106168
 239    -0.017843039001582
 240     0.014569313490946
 241    -0.0045641901489251
 242    -0.022321288633985
 243     0.020006271267091
 244    -0.0056211989397875
 245     0.065823455280367
 246     -0.05567112959268
 247     0.016503926518924
 248     0.064818205162088
 249      -0.0629973899445
 250     0.016301552083433
 251    -0.0011174261073592
 252    0.00081722476532112
 253    -0.0011249322766416
 254     -0.00235865241523
 255    -0.0056873243938923
 256    -0.0020698735985801
 257    -5.7917338717674e-05
 258    -0.0020738715555329
 259    -0.0029218434979468
 260    -0.0059752111793669
 261    -0.0045407296312675
 262    -0.0091267341378761
 263      0.02014782767053
 264     0.016254336325552
 265     -0.01681902671127
 266    -0.0064234541320501
 267    0.0048811764981586
 268    -0.021288476401398
 269    -0.0082871166787901
 270    0.0067030305453954
 271     0.061919929106606
 272     0.023368002172222
 273    -0.018745195017725
 274     0.064064370941605
 275     0.025577451748446
 276    -0.020285210849742
 277    0.00078896654112722
 278    -0.0054893540969749
 279    -0.0017397524952621
 280    -0.00012469896203325
 281    0.00060337025286206
 282    0.00063788448582784
 283    -0.0055815980659303
 284    -0.0027601585252547
 285    -0.00084344126649178
 286    0.00070691576197332
 287     0.012544465756726
 288      0.02498929474038
 289     -0.05585467954693
 290    -0.044322714415981
 291    -0.018732823115646
 292     0.015621162031619
 293    -0.00024296978047455
 294    -0.022966706006163
 295     0.021363402279632
 296    -0.00015432321228973
 297     0.066694490502804
 298    -0.058556046222422
 299    0.0011115270630006
 300     0.064564842001878
 301    -0.067869473948181
 302    -0.00016230286951633
 303    0.0014713994675679
 304    0.0010153956667835
 305    -3.891924024791e-05
 306    0.0027462255795578
 307    0.0049410711740312
 308     0.002109267202717
 309    -0.0011416273460866
 310    0.00037099979942225
 311    0.0022532607878417
 312    0.0067376765606925
 313    0.0048509257800195
 314     0.010396597366466
 315    -0.022439434685529
 316    -0.019538767663033
 317    -0.019678456796955
 318    -0.0042089994955863
 319    0.0069246549195713
 320     -0.02419567601025
 321    -0.0051834366661425
 322     0.009464309513512
 323     0.069968821440412
 324      0.01604513055213
 325    -0.026007781190725
 326     0.069072667564241
 327     0.013341687628084
 328    -0.029455001576844
 329    -0.0017146141638573
 330    0.0052136300030571
 331    0.0011689595990625
 332    0.00019483932114965
 333    0.00079479598074243
 334    -0.00070658261491053
 335    0.0070116182314068
 336    0.0018679199708841
 337    -0.0011396407634399
 338    -0.0008435717461789
 339    -0.042805047600677
 340    -0.0080048730472332
 341     0.066762769946012
 342     0.069737901138717
 343       -0.110036169869
 344      0.02711539587755
 345     0.023528598745382
 346     -0.11539545025607
 347     0.028470412031918
 348     0.024554680521095
 349      0.33424665466271
 350    -0.085955298837387
 351    -0.071816457734035
 352      0.43354806250274
 353     -0.10335156866507
 354    -0.098573924937437
 355    -0.013109686830572
 356    0.0052322001340157
 357    -0.0028410796847794
 358      0.02855349237052
 359    0.0078392102836642
 360    0.0056471245894609
 361    -0.0014902054316938
 362    0.00023210939705174
 363    -0.013640430914867
 364    -0.0014844279198912
 365     0.038163806674418
 366     0.070915693795095
 367       -0.168020814548
 368       -0.107246699113
 369    -0.047977457425354
 370    -0.013418919236464
 371    -0.012548526029872
 372    -0.064966108327402
 373    -0.017534544481609
 374    -0.015643301628426
 375      0.17349564870473
 376     0.046518354020827
 377     0.044869073389662
 378      0.20041242459453
 379     0.054244449309401
 380     0.040732118886922
 381    0.0032998808335059
 382    -0.003899749532792
 383    -0.0011616877264415
 384    -0.0067640608350423
 385    -0.0021076570490736
 386    0.0053894224185941
 387    -0.0014655969924467
 388    0.0011720311346506
 389    -0.0062739952308189
 390    -0.0065650737794932
 391    -0.011870818342108
 392    -0.023888896678008
 393     0.060630541425293
 394     0.021808890136917
 395     0.015669521074468
 396     0.015828504710024
 397    -0.0010570053822095
 398      0.01911153264424
 399     0.021132524031401
 400    -0.0012241235703503
 401    -0.056533508597551
 402    -0.060597347521312
 403    0.0036774854419817
 404    -0.048483779397749
 405    -0.053236436576677
 406    0.0040744403782705
 407    -0.0011742743622275
 408    0.00064994005818782
 409    -0.0004005222432454
 410    -0.0016498432613609
 411    0.0040757695574253
 412    -0.0021886978478488
 413    0.00016535419896019
 414    -0.00017206543572465
 415    -0.0042180032309796
 416    0.0041295691124197
 417    -0.010571262206348
 418    -0.020563450527381
 419     0.052383671163507
 420     0.020299987778298
 421     0.013970992778939
 422    -0.0013271790882235
 423     0.011822241519842
 424     0.016769286250101
 425    -0.0014567443842049
 426     0.016106262169103
 427    -0.050802017024352
 428    0.0056757589038882
 429    -0.046675177424159
 430    -0.042063757351457
 431    0.0017285648510466
 432    -0.042102425029529
 433    0.0013473127871329
 434    0.0043438598172958
 435    -0.00085259167470983
 436    0.00076914357250565
 437    0.00015754688841166
 438     0.004725745972576
 439    0.0031080650952083
 440    0.00021700721802943
 441    -0.001328001747977
 442    0.00070809594342436
 443    0.0067016942847428
 444     0.011427621818761
 445    -0.023359230969972
 446    -0.026989097604039
 447     0.018475077833624
 448    0.0059116666089073
 449    -0.0052096862502743
 450     0.022734925590597
 451    0.0084430328845987
 452    -0.0062980043563581
 453    -0.065678336176043
 454    -0.019858796236714
 455     0.018357605871876
 456    -0.062611817037031
 457     -0.03781923979348
 458     0.017173571090766
 459    0.00062091097580456
 460    0.0016426583339581
 461    0.0015469170313954
 462    0.0017944228434477
 463    -0.0054052630763617
 464    0.00075511292859016
 465    -0.0010442894589378
 466    0.0010457677428677
 467    -0.0012374401182682
 468    -0.0047665793697169
 469    0.0067169773643743
 470     0.010408567241902
 471    -0.020854102921474
 472    -0.028443928619491
 473     0.021410543723274
 474    -0.0053819264841219
 475    0.0051759825196313
 476     0.026068272573141
 477    -0.006829426148496
 478    0.0073123055747717
 479    -0.076221633533519
 480     0.019311344253356
 481     -0.01649920591367
 482    -0.068436245211949
 483     0.019101471005804
 484    -0.035674523393369
 485    -0.00075091176733774
 486    -0.0057994577671239
 487    0.0014883130946591
 488    -0.00033958727994245
 489    0.0012850916219888
 490    -0.00071574880307266
 491    -0.0053145490459311
 492    0.0015173220648059
 493    0.00018792372381856
 494    -0.00025835211262545
 495    0.00046771754477888
 496    -0.0044669263352458
 497    -0.0013049343870874
 498    -0.0017750158926655
 499    -0.00078230592109092
 500    -0.00052164161863042
 501    -0.0036114841289095
 502    -0.00013575659516181
 503    0.00023352424664323
 504    -0.00015261868368712
 505    -0.0001551052589607
 506    -0.00023880657512931
 507    0.00026350811272014
 508    -0.00012865717920187
 509    -0.0028840005106418
 510    -0.010548081720704
 511    -0.0030866376543196
 512    0.00031588771509531
 513    0.0051175520325517
 514    0.0065771237645016
 515    -0.0084399450096095
 516    -0.0044965980140108
 517    -0.0066102293999005
 518    -8.3825054486628e-05
 519    0.0001458244448422
 520    0.00033682668950728
 521    0.00012723285606478
 522    0.00023323948819468
 523    -0.0080787713362655
 524    0.0050385114609067
 525    -0.0012547470978417
 526    -0.0015082387405608
 527    -0.00027886230739058
 528    -0.017466944174233
 529    0.00075283593740295
 530    -0.001605090341388
 531    -0.0005025116647137
 532    -0.00061378868264298
 533    -0.0085886363532797
 534     0.007292003925885
 535    -0.0012246652071736
 536    -0.00035273171929423
 537    -0.0015778428646287
 538    -0.00032088114263946
 539    -0.0021046964939362
 540    -0.00023710418029771
 541    -8.6439101627002e-05
 542    -7.2175164139181e-05
 543    -4.2290892320209e-05
 544    -0.0023358844196924
 545    -0.00026120736747947
 546    -7.866831970359e-05
 547    -0.00014460178539645
 548    -0.0011230230481478
 549    0.0021137368213406
 550    -0.00027641793425152
 551    1.9864901127912e-05
 552    1.0989724090259e-05
 553    0.00020419911738798
 554    -0.001714523019006
 555    -0.00093039002581238
 556    -0.0009601244201155
 557    -0.00052992378432461
 558    0.0027661227885692
 559    -0.0015038626505533
 560    -0.004923997360266
 561    -0.0026233271884879
 562    -0.00027483011072031
 563    -9.3775912347192e-06
 564    -0.00014197759460358
 565    -0.00023410607067686
 566    6.7288030807934e-05
 567    -0.0012097998332904
 568    -0.0057962602866235
 569    0.0082974272472498
 570    -0.00048657024777398
 571    0.0024093847529126
 572    -0.0034565411367147
 573    -0.00036272111601768
 574    0.00031681568080105
 575    0.0027761223213346
 576    1.5911845906941e-05
 577    -0.0006176393144982
 578    -0.0001789492125207
 579    0.00015797220184114
 580    -0.00042354922228163
 581    -0.0084273127650741
 582    -0.0046488390608848
 583    0.00060525988958098
 584    -0.00010193443822251
 585    9.389905838738e-05
 586    -0.0021540111050861
 587    0.00063783137522399
 588    -0.00027725730478381
 589    2.9977908477937e-05
 590    0.00024024631380493
 591    -0.0095137329778883
 592    0.0020187269103828
 593    -0.0006933680544332
 594    -9.7426679836747e-05
 595    0.00067428676814171
 596    -0.0017382884014365
 597    -0.003307016568515
 598    -1.1987709609762e-05
 599    -0.00023531593333592
 600    0.00044747133398398
 601    0.00060692468162902
 602    0.0037322580508779
 603    -0.00025318107098644
 604    0.00019919166848583
 605    -0.00034248176447036
 606    -0.0065376091768658
 607    0.0027293838211334
 608    0.00021510198299822
 609    -0.00068169810251507
 610    0.00042624939621646
 611    0.00063106075943805
 612    0.00039226291453104
 613    -0.0063104340327505
 614    0.00035018914920951
 615    -0.00087158161433338
 616    0.00035172075188846
 617    0.0003568280735156
 618    -0.0030198683949096
 619    0.0020678297327428
 620    -0.00012280838706064
 621    6.0521069737535e-05
 622    5.3260686634237e-05
 623    -0.00042744706330657
 624    -7.2867388583957e-05
 625    0.0020445022904415
 626    0.0086274980319219
 627    -0.0068878731423722
 628    -0.0013261703630558
 629    -0.0066671905327066
 630    -0.0035172636003025
 631    0.0024856901254664
 632    0.0044180298986507
 633    8.4740050795722e-05
 634    -0.00040774642113174
 635    2.0524734680557e-05
 636    -9.0352538685032e-05
 637    -0.00065525217657443
 638    -9.8875986572822e-05
 639    0.0051578028903314
 640    0.0069426625514323
 641    -0.00012358927615314
 642    0.0004110808712575
 643    0.00053618765871798
 644    0.0061149959667101
 645    -0.0028373490117372
 646    -0.00013380022132736
 647    0.00011544433732493
 648    0.00025309386255778
 649     0.014137533432019
 650    0.0020475125262983
 651    -0.00038045036264571
 652    0.0002467351491705
 653    0.0010692514224782
 654    0.00088966358406452
 655    0.0019765354575596
 656    3.1633283782407e-06
 657    -5.8839547847853e-05
 658    -2.5811305205573e-06
 659    0.00019030657762033
 660    0.0026571734328149
 661    -0.00034215544825513
 662    0.00028267515221931
 663    8.4084223589846e-05
 664    0.00073442549116187
 665    0.0011378010280455
 666    7.2695808931736e-05
 667    0.00028965477769642
 668    7.4763579552743e-06
 669    0.00033539266614715
 670    0.00079987403036004
 671    -0.0061372804680925
 672    -0.00027456079307341
 673    0.0010455727155122
 674    0.00061040146819257
 675    -0.0014350911192834
 676     0.002196953557479
 677    0.0054747648148728
 678    0.00027234668621465
 679    -0.00024422624110872
 680    5.4035594970749e-05
 681    0.00024065795948707
 682    0.00017528302705673
 683    0.0015813400730156
 684    0.0061121510087294
 685    -0.0023488482491357
 686    -0.00014470602034597
 687    -0.0027070190975977
 688    0.0036604900831013
 689    -0.0023122852425282
 690    0.0013974957494873
 691    -0.00088033919142835
 692    -0.00019712021634003
 693    -0.00057036445367967
 694    9.6928758624094e-05
 695    -0.00022323465858958
 696    -0.00044278135461707
 697       0.0086471274714
 698    0.0077447140612347
 699    0.00026900131303638
 700    9.5857150582987e-05
 701    4.4500144913881e-05
 702    0.0091708545823367
 703    -0.0089706294766367
 704    -0.00068821716761445
 705    0.00043257059705121
 706    -0.00078931335199711
 707    0.00053324516324553
 708    -0.0013347559071817
 709    -8.0573735180118e-05
 710    -0.00012903238391459
 711    -8.8942242585508e-05
 712     0.002693659044452
 713    0.0036476765610218
 714    0.00021376547784011
 715    0.00010932603320332
 716    -0.00034268523051644
 717    0.0005241509643515
 718    -0.0012835163499896
 719    -8.874218270245e-05
 720    -1.7435140564215e-05
 721    0.00022213086773836
 722    0.00020292939215685
 723    0.0031846634777286
 724    0.00011397756370476
 725    0.00025466348405207
 726    -0.00043342833929994
 727    -0.00015306806552512
 728    0.0021458464365412
 729    -0.0017926889799604
 730    -0.00096361785478194
 731    0.00031804610067389
 732    0.0015515730641724
 733    -0.00091488996865501
 734    0.0066719533994829
 735    0.0039708882118203
 736    -0.00030772716456395
 737    0.00020339871313875
 738    0.00019980006287673
 739    -0.00018611510195476
 740    -0.00010679484063307
 741    0.0019148059092496
 742    0.0080218895768597
 743    -0.0064194837285529
 744    0.00096044163641872
 745    0.0031071894470467
 746    -0.0036840475219899
 747    -0.0014459035499679
 748    -0.0016395324070188
 749    0.0012036041446759
 750    0.00022674072983378
 751    -0.00045575777433119
 752    4.9433203113594e-05
 753    -1.5010649895037e-05
 754    -0.00077430524689137
 755    0.0099657744159088
 756     0.007023622725481
 757    0.00060091555030505
 758    -0.00035393750706069
 759    0.00030352252087982
 760    0.0019904537256516
 761    -0.0028870942690279
 762    -0.00027253976784278
 763    -0.00010834004983442
 764    -0.00014365122239833
 765     0.012058912919961
 766    -0.0055683508627371
 767    -0.00075829098556986
 768    -0.0011093178267568
 769    0.00022814787780281
 770      0.00047679162142
 771    0.0026679793022238
 772    1.9345337240733e-05
 773    -0.00047746616697036
 774    0.00021377933455325
 775    0.0009554165081264
 776    -0.0042109284971856
 777    -8.4398285691432e-05
 778    0.00027346877299992
 779    -0.00023942283324797
 780    0.0053192139866608
 781    0.0022798893766448
 782     0.000182829370424
 783    -0.00048307359636754
 784    0.00047732310097421
 785    -0.0036198631918435
 786      0.01102818499573
 787     0.017411050106968
 788    -0.000426462228464
 789    -0.0061483097816997
 790    -0.0069373380516851
 791    -0.0073380175463008
 792     -0.01004276063636
 793    -0.0051887806816322
 794    0.00046447376109811
 795    -0.00036420621123151
 796    -0.00068679604430424
 797    -0.00080112329094232
 798    0.00049221064886361
 799    0.00070938294474364
 800    0.0030599248272025
 801    0.0024307765935378
 802    -0.0010710883944153
 803    0.0011390538778063
 804    0.00070625005175785
 805    -0.0038977363502624
 806    0.0054369651311912
 807    -0.0015200340892471
 808    -5.1721315926972e-05
 809    0.00013393169815342
 810    -0.00012979503583616
 811    -8.5350244901769e-05
 812    0.00025089896930257
 813    0.0073510912527873
 814    0.00062532624671391
 815    -1.6147308778138e-05
 816    -0.00015256963964099
 817    -0.0003021647759922
 818    -8.3658955198711e-05
 819    -0.0029564297444637
 820     0.000289739571255
 821    0.00029154865781976
 822    -0.00022110992212611
 823    0.0014176046641746
 824    0.00027514984402995
 825    0.0001722635433922
 826    -0.00051619320729239
 827    -9.8372252393453e-06
 828     0.015993280333786
 829    -0.010713567531235
 830    -0.00056440034229891
 831    -0.00093348062025676
 832    -0.00017707347398983
 833    0.00020708346808385
 834    -0.0047021671421739
 835    0.00082787096529979
 836    0.00031613237091469
 837    0.00016338174269994
 838     0.013241513527295
 839     -0.01701633345782
 840    -0.00061748274613725
 841    -0.0010914058819613
 842    -0.00084885708508589
 843    0.00069303406954065
 844    -0.0028474429069927
 845    -0.010096033416564
 846    0.00065943671545665
 847    -0.00098649749748766
 848    0.0013763080347812
 849    3.1151767092859e-05
 850    -0.0018172469820652
 851    0.00035654755364167
 852    -4.9536268580017e-05
 853    -7.574403194705e-05
 854    5.1850737361796e-05
 855    4.8504379473904e-05
 856    3.6132042215408e-05
 857    -0.00058406195454176
 858    -0.0020254071244109
 859    -0.0040175385024832
 860    0.0032939099166391
 861     0.001238051480757
 862    -0.0038712408579133
 863    -0.0039029353978459
 864    -0.0051651570284213
 865     0.011867126244861
 866    -5.8325749604804e-05
 867    0.00016759744583792
 868    5.4208121572894e-05
 869    -1.3123932411549e-05
 870    -0.00027343992899476
 871    -0.0035353852915159
 872    -0.0014741043451994
 873    0.00049717653216752
 874    6.3464423144857e-06
 875    0.0011269145970099
 876    -0.0035394780790654
 877    -0.0065889158470683
 878    0.00062610138902115
 879    -0.00090328824365882
 880    -5.3477241641305e-05
 881    -0.0044802275981673
 882     0.018241446584603
 883    0.00011371787583581
 884    -0.00062755007962195
 885    0.0012727554374191
 886    -0.00041367196064341
 887    0.0015797122128289
 888    0.00012210227220208
 889    -4.9124165139769e-05
 890    0.00014386646265631
 891    -3.7812116208158e-05
 892    0.0042634351675364
 893    -6.1631939732401e-05
 894    -0.00023841434283431
 895    -4.3624161018485e-05
 896    -0.00011677758704527
 897    0.0028248679560491
 898    -3.1826440057885e-05
 899    0.00011997477706685
 900    0.00024672662902791
 901    -0.00038339071399328
 902    5.597234737124e-05
 903    0.0019165077623404
 904    0.00019680761655383
 905    0.0020879052963898
 906    -1.8371942261588e-05
 907    -0.0013803210183549
 908    -0.0018035107180704
 909    -0.0046422961734846
 910    0.00035790449389318
 911    4.6962671877236e-05
 912    -5.8838897940629e-05
 913    7.9821279972102e-05
 914    -0.00012534108810379
 915    -0.00091674401417866
 916    -0.0045580523125511
 917    0.0069728461236956
 918    -0.0014005507692871
 919    -0.0037245773473811
 920    0.0016467979732077
 921    -0.00031403244456111
 922    0.0017243683998001
 923    5.9375300529497e-05
 924    -0.00019669789217716
 925    -0.00042005205785634
 926    -0.0001922453285253
 927    2.3752551080061e-05
 928    -0.00051962047887341
 929    -0.001081298183065
 930    -4.6196671502735e-05
 931    -0.0001271407031939
 932    0.00017539520471471
 933    6.0414822675718e-05
 934    -0.008212342472303
 935    -0.0049622757674156
 936    0.00042888805656608
 937    -2.0728149804242e-05
 938    1.9036915600159e-05
 939    -0.0076009087200626
 940    0.0030800367997026
 941    -0.00073469614590475
 942    0.00044841784861123
 943    -0.0002100729293206
 944    -0.0017837000352747
 945    -0.0039456078112029
 946    5.0490878562541e-05
 947    0.0003970449613073
 948    -0.00026411087342978
 949    -0.0038890978781834
 950     0.001296179183658
 951    0.00020148943247612
 952    0.00040772213912065
 953    -0.00030353673013741
 954     0.001185894253291
 955    0.00096911255469028
 956    -0.0002501360234905
 957    -0.00030935261751216
 958    3.4569062554191e-05
 959    0.0010307869410977
 960    -0.0035797960767378
 961    -0.0036067893652987
 962    0.0020989047619182
 963    0.0037833412147644
 964    0.0022844084138391
 965    -0.001103932782423
 966    0.0005774019773121
 967    0.0014847407497043
 968     3.57483589042e-05
 969    0.0001620566927915
 970    0.00034673525874277
 971    0.0003468917726643
 972    -0.00010602837872142
 973    -0.0008053051780623
 974    -0.0036703985535725
 975    0.0033296267740527
 976    -0.00018398553152558
 977    -0.001519328169695
 978    -0.0019585246044036
 979    -0.0012833238467554
 980     0.001049232041967
 981    -0.0029256913344409
 982    -0.00013947541207858
 983    0.00011831939227468
 984    0.00010651950652427
 985    -8.6811113846118e-05
 986    3.5432695681683e-05
 987    -0.0063033527732417
 988    -0.0013149194096728
 989    0.00024540715930396
 990    0.0002162874924362
 991    -1.6440284913841e-05
 992    -0.00023074390706863
 993    0.0022798832155315
 994    0.00021712555439455
 995    0.00013802517088303
 996    -0.0002262385484992
 997    -0.0010772722949751
 998    -0.00059645347679489
 999    -1.5927505814602e-05
 1000    8.6764664747485e-05
 1001    0.00031907180461246
 1002    -0.008026617272164
 1003     0.003187472237569
 1004    -0.00030310888331633
 1005    0.00017966464463652
 1006    0.0002818685630733
 1007    0.0025438630223494
 1008    0.00075293156145158
 1009    0.00016552735622722
 1010    0.00019613241925847
 1011    -0.00014907570039056
 1012    -0.0029120058760996
 1013    0.0031329724932723
 1014    2.1296971901185e-05
 1015    7.8677959421011e-07
 1016    0.00042044541831308
 1017    -0.00061183554539244
 1018    0.0024853485794749
 1019    0.0078158208178323
 1020    0.00070320966563545
 1021    -0.0013478296914534
 1022    0.00077426565962291
 1023    0.00026348113872603
 1024    -0.0001888200086781
 1025    0.0010792785827177
 1026    -2.188966461575e-05
 1027    1.3623243199366e-05
 1028    -4.1734572736972e-05
 1029    -7.5152673414877e-05
 1030    -7.8488407384306e-05
 1031    0.00028000107355244
 1032     0.001074198143259
 1033    0.0027969552741098
 1034    0.0034226349933178
 1035    0.0033533191745142
 1036    -0.0004913648170172
 1037    -0.0040618825153095
 1038    -0.010039923625739
 1039    0.0039228697186557
 1040    -1.4045472844394e-05
 1041    -0.00018650926143238
 1042    -0.00012022021881266
 1043    -6.5964804012361e-05
 1044    0.00017038347364231
 1045    0.0022606735623228
 1046    0.0019388534224344
 1047    0.00033847056231672
 1048    -0.00089234223166595
 1049    6.530575833634e-06
 1050    0.0021515015485485
 1051    0.0068371439553657
 1052    0.00042018439752529
 1053    0.00011252233535806
 1054    0.00073727617125445
 1055    0.0032584919656564
 1056    -0.015618343580918
 1057    0.00014505817166722
 1058    -0.0010516826560598
 1059    0.00049553039749171
 1060    0.00030889990585053
 1061    -0.0014946612870931
 1062    0.00011554921420283
 1063    -0.00011506453079367
 1064    3.0516840649348e-05
 1065    -3.6803736137589e-05
 1066    -0.0030765684697536
 1067    -4.6977715088062e-05
 1068    1.7078849302744e-05
 1069    0.00020574253202529
 1070    8.9994527894702e-05
 1071    -0.0026355701342031
 1072    -3.5912075367176e-05
 1073    -0.00022034783427072
 1074    -8.9024255481099e-05
 Sym= A
 Ene=               0
 Spin= Alpha
 Occup=    0.00000
   1    -0.022114636175236
   2    -0.0037949072971809
   3     0.032084889079448
   4     0.037646048406812
   5     0.037394260316374
   6    -0.010986698517293
   7    -0.007133016678279
   8     0.039472999032938
   9    -0.011485722451374
  10    -0.0074368298506358
  11     -0.11448760466046
  12     0.036100992335432
  13     0.022504464370789
  14     -0.15116030641542
  15     0.044379932986343
  16     0.032845188671193
  17    -0.006206389276584
  18    -0.0021490979599042
  19     0.001778102277194
  20     0.012986855866437
  21    -0.0018245319068234
  22     0.002101859766199
  23    -0.00076572505129884
  24    -0.00071400942431748
  25    -0.0051274518877011
  26    -0.00067774696767123
  27    -0.023755427918795
  28    -0.051979317657484
  29      0.12789491085201
  30     0.064808068555072
  31    -0.0078293105758851
  32    -0.017612768454389
  33    -0.014838093976457
  34    -0.010349724428328
  35    -0.023247129118709
  36    -0.019628263171889
  37     0.031382968508343
  38     0.065739997513781
  39     0.055310178325529
  40     0.031075585176342
  41     0.067753363287742
  42     0.057127377012331
  43    -0.003704409623651
  44    0.0054406082350964
  45    0.00014886355720367
  46     0.006881813597288
  47    0.0065600836789252
  48    -0.0036848640258501
  49    0.0072470704376071
  50    -0.0029150852505852
  51    0.0065133556746291
  52    0.0084016250599881
  53    0.0035480073557387
  54    0.0064745349369483
  55    -0.014534468694004
  56    -0.012279884786745
  57    -0.0050598999327973
  58    -0.0043807653132932
  59    0.00068999946727262
  60    -0.0057894284914582
  61    -0.0061014927939371
  62    0.00058014611396069
  63     0.019069119063431
  64     0.015276392597637
  65    -0.0027574001397887
  66     0.013602075915389
  67     0.023492630436173
  68    0.0012035991996389
  69    0.0006073644906875
  70    -3.49612961043e-05
  71    6.170362980364e-05
  72    0.0012509639143243
  73    -0.0014990788039171
  74    0.00066302102086626
  75    -0.00029430286761931
  76    2.7243870020634e-05
  77    -0.00022376377929867
  78    -0.0013231692408147
  79    0.0027212008712942
  80    0.0047451755938241
  81    -0.0097815582764183
  82     -0.01177782016128
  83    -0.0056526467157876
  84    0.0010765452762779
  85    -0.0035148690374027
  86    -0.0065371350608072
  87    0.0012533003768502
  88    -0.004854137610892
  89     0.021357639988219
  90    -0.0042160149165774
  91     0.011827819419889
  92     0.013863186246497
  93    -0.0015388475805659
  94     0.019636251520202
  95    -0.00092048435497073
  96    -0.0016605587853385
  97    0.00017287216254558
  98    -4.7561325996475e-05
  99    -0.00017053069115108
 100    -0.00041050304254275
 101    -0.0011796785398891
 102    0.0002292684679299
 103    -0.00035751861980469
 104    -0.00016279119780015
 105     0.015027881463246
 106     0.028900632549127
 107    -0.069166684269744
 108    -0.042187961968181
 109     0.019502509914935
 110    0.00015511165551556
 111    -0.00043914859838683
 112     0.026340367386151
 113    0.00021705667228363
 114    -0.00083037203819415
 115    -0.071662861835369
 116    -0.00064812188849275
 117    0.00097123642486629
 118    -0.080345862614383
 119    -0.00089833628995109
 120    0.0052162659185942
 121    0.0017040850619342
 122    -0.00030312910040183
 123    -0.00021991479651684
 124    -0.0029762907189912
 125    0.0003790110527631
 126    0.0020410454933367
 127    0.0011806536894684
 128    0.00081488257144039
 129    -0.0034992828158328
 130    -0.0010844836119173
 131    -0.003662961948665
 132    -0.0085391717492682
 133     0.020018806363019
 134    0.0095749773347995
 135    -0.0060699051218609
 136    -0.006192400453149
 137    0.0022788260437545
 138    -0.0078519284043779
 139    -0.0082489466856042
 140    0.0028962137149268
 141     0.020554525343428
 142     0.023582983759772
 143    -0.008134212233753
 144     0.024566417642689
 145     0.019656261981001
 146    -0.0084079800783411
 147    -3.4732744729694e-05
 148    -9.0368508245563e-05
 149    -0.00043821985811857
 150    -0.00061752314089743
 151     0.001653503317637
 152    -0.0010170175931914
 153    -0.0004395082980464
 154    -0.0010780180724852
 155    -0.0016307742778219
 156    0.0017781827278146
 157    -0.0027152313182886
 158    -0.0059722898278779
 159     0.014945097102664
 160    0.0051993469495634
 161    -0.0057135509760108
 162    0.0019630705066601
 163    -0.0035929586850619
 164    -0.0073967201254407
 165     0.002574691644893
 166    -0.0048592130757546
 167     0.019791193085944
 168     -0.00737654118806
 169     0.014327628992007
 170     0.022838285465456
 171    -0.0075270919470489
 172     0.010758788889069
 173    -0.00012301762680504
 174    0.0018219671241781
 175    -0.00057204347216394
 176    -0.00011839631622432
 177    -0.00038025887543432
 178      0.00216855114062
 179    0.0014534007131523
 180    -0.00086820246611944
 181    -0.00034817654927092
 182    0.00018968836073031
 183    -0.0028876827072123
 184    -0.00060502627388166
 185    0.0084723339020521
 186    -0.011469770360334
 187    -0.026331226703414
 188      0.15315580096062
 189      0.12871748482855
 190    -0.027693465454544
 191      0.16126323848946
 192      0.13569009126631
 193     0.080989029024391
 194     -0.48259237662168
 195       -0.406295435594
 196      0.10943411140786
 197     -0.64676320769534
 198     -0.54263293401502
 199    0.0078344673541875
 200    -0.00057691896112047
 201      0.01439156525929
 202    -0.0022717027286569
 203    0.00041789909528786
 204    -0.0042847056917693
 205    0.00036943341112828
 206    -0.00098302898589124
 207    0.0012256765888388
 208    0.00056405709267721
 209    0.0058128402816752
 210     0.010565282632851
 211    -0.022317862915269
 212    -0.021940353575695
 213    0.00018285179291942
 214    -0.020567570592662
 215    -0.017330749479558
 216    0.00033253798570969
 217     -0.02708247083057
 218    -0.022658982574659
 219    -0.0039234085141733
 220       0.0760816938482
 221     0.064401783250587
 222    0.0027697652335342
 223     0.080491749258202
 224     0.066317359809878
 225    0.00031795609913292
 226    -0.006257663836625
 227    1.328998489032e-05
 228    -0.00033078547606304
 229    -0.0075176715176395
 230    -0.00078652420397072
 231    -0.007946058886125
 232    -0.002559750931556
 233    0.00061572005519466
 234    -0.009639763163882
 235    -0.046999487398541
 236    -0.094169490612111
 237      0.21974738418819
 238      0.14766296595333
 239    0.0026774093130557
 240     0.052196633538145
 241    -0.025584223867316
 242    0.0035365403423443
 243     0.071781815882189
 244    -0.032546268442966
 245    -0.0096966066788464
 246     -0.19961737142052
 247     0.093224416438687
 248    -0.012445616189054
 249     -0.22706152956843
 250     0.097913098356508
 251    -0.0041783557761003
 252    0.00018358379967261
 253    -0.0069352149337589
 254    -0.0092082699296926
 255    0.00097635524878526
 256    -0.0046146055676587
 257    -0.00073117947615876
 258     -0.01102280136608
 259    -0.0098634633914998
 260    0.00068238319492199
 261    -0.037266730993677
 262    -0.073666206472853
 263      0.17107198239078
 264      0.11682698716361
 265    0.0045003324832352
 266    -0.027888979992575
 267     0.039969828705982
 268    0.0056089429803134
 269    -0.035337634195814
 270     0.055175632461847
 271    -0.016541011888148
 272      0.10143216449311
 273     -0.15214416520583
 274    -0.015327468098688
 275       0.1051668704087
 276     -0.17674547554668
 277    0.0072440758868252
 278    0.0014892848990185
 279    -0.0074255997152846
 280    -0.0011705006198187
 281    -0.00060133917737901
 282     0.007908742686782
 283    0.0013212277281153
 284    -0.011964217149585
 285    -0.00086676659980955
 286    0.00056617628799747
 287     0.048180161402824
 288     0.096619413320841
 289     -0.22208862308022
 290      -0.1566558484318
 291    0.0028640457541776
 292      0.06016102186832
 293    -0.0088927044609872
 294    0.0029817499850523
 295     0.082467095443479
 296    -0.0096918934485283
 297    -0.010248363017783
 298     -0.22798579336562
 299     0.034131215902812
 300    -0.006093745616025
 301     -0.25479016858039
 302      0.01860816543128
 303    0.0060409487876427
 304    -0.00038668226538395
 305    0.0015138979688027
 306     0.010691265505844
 307    -0.00057569587388112
 308    0.0078366549271527
 309    0.00041832970963101
 310      0.00528246891807
 311    0.0097858822971974
 312    -0.0013057727180925
 313     0.042813697704566
 314     0.086930929185588
 315     -0.20189912142688
 316     -0.13427724756224
 317    0.0030957882950057
 318     -0.01359454017346
 319     0.053819575863293
 320    0.0038844708035686
 321    -0.016567182180904
 322     0.073358763809298
 323    -0.011468122654393
 324     0.052150766490408
 325     -0.20452475811168
 326    -0.0076034516547163
 327     0.038306373373848
 328     -0.22237219145953
 329    -0.010591447160053
 330    -0.0011074299389668
 331    0.0033656496115094
 332    -4.9570703003825e-05
 333    0.00032587557767904
 334    -0.012120048600883
 335    -7.5371081833306e-05
 336    0.0060732045837658
 337    -0.0015801134171024
 338    -0.0014374772109369
 339    -0.0026206109121228
 340    -0.0002447755597955
 341    0.0037177710947676
 342    0.0014126973531842
 343    0.0076393572853644
 344    -0.022694574346814
 345    -0.018309894338714
 346    0.0078882514755065
 347    -0.023757930124531
 348    -0.019099231114872
 349    -0.023306253498878
 350       0.0720329693006
 351     0.058057766812967
 352    -0.029605699222259
 353     0.093097682497483
 354      0.07635558215249
 355    -0.0017488520380262
 356    0.00059781080546562
 357    0.0030134637584176
 358    -0.0016572848188551
 359    0.00064101810147701
 360    0.00092034405743478
 361    0.00082013145475525
 362    -0.0005055344618351
 363    0.0013443110634746
 364    0.0012309565854291
 365    -0.0011155178713397
 366    -0.0017178252853024
 367    0.0030777285978447
 368    0.0048535348086427
 369    0.00087707896426599
 370    0.0041380210964158
 371    0.0034067554460131
 372      0.00124586371483
 373    0.0050838891553659
 374    0.0041743098729265
 375    -0.0024868339805903
 376    -0.014973448583108
 377    -0.012300806400823
 378    -0.0052116364273238
 379    -0.012678861012264
 380    -0.010490445450778
 381    0.00018726116952382
 382    0.00076846977442369
 383    0.00028172527704638
 384    -9.2333118905778e-05
 385    0.00090329879913279
 386    -0.00029283550380143
 387    0.0010069721353342
 388    0.00014093707238856
 389    -0.00035203282820496
 390    0.0012895168716703
 391    0.0087128273501636
 392     0.016980331504511
 393    -0.040338172840834
 394    -0.023856439479955
 395    -0.00083375258042622
 396    -0.011593909572337
 397    0.0010055632065075
 398    -0.0014851858037629
 399    -0.015724610424907
 400    0.0011494391778935
 401    0.0015858014619806
 402     0.042535485465343
 403    -0.0038331850367709
 404    0.0076717127041135
 405     0.047910305772922
 406    -0.0020285056410439
 407     0.001071028360825
 408    -0.0001073038426396
 409    0.00021775977325105
 410    0.0016009921706167
 411    -2.7463602867802e-06
 412    0.0016092591474195
 413    0.00017141075032665
 414    0.00018439947421721
 415    0.0022496301323114
 416    -0.00060570998997687
 417    0.0067459638700645
 418     0.013135614640977
 419    -0.031339762142973
 420     -0.01864041430798
 421    -0.0005931199188659
 422    0.0017483561415227
 423    -0.008043974238555
 424    -0.0011437912985974
 425    0.0020277254616698
 426    -0.011142281219148
 427    0.0014086132301615
 428    -0.006898513171676
 429      0.03023765361001
 430    0.0054808775526685
 431    -0.0037495018355568
 432     0.035482252702494
 433    -0.0017427438531644
 434    -0.00029493601731935
 435    0.00060905392264664
 436    -0.00017416051597727
 437    -0.0001400054380318
 438     -0.00172521206771
 439    -5.4294133620741e-05
 440    0.0002280715314487
 441    -0.00017411276377662
 442    0.00028187505474851
 443    -0.0068986062250475
 444    -0.013386476607687
 445     0.030465577529478
 446     0.021879782974608
 447    -0.0023416920289884
 448    -0.0079733097103765
 449    0.0037726692381703
 450    -0.0023013486922047
 451    -0.010954151255985
 452     0.004606920671552
 453    0.0091173811114549
 454     0.029605575125556
 455    -0.013839590890939
 456    0.0024309076692345
 457     0.035159967061183
 458    -0.012660130451178
 459    -0.00038163217029893
 460    -0.00043808347092868
 461    -0.0012309506162075
 462    -0.0010940704351866
 463    0.00039218134995209
 464    -0.0013405836122537
 465    0.00047644663601652
 466    -0.0011520959911331
 467    -0.0015987608379444
 468    0.00066943222748774
 469    -0.0054087848606729
 470    -0.010916959180671
 471     0.023302336556702
 472     0.020553032329583
 473    -0.0022510668208027
 474    0.0049183113769181
 475    -0.0068794418990691
 476    -0.0021768605555752
 477    0.0061164177398553
 478    -0.0093784816833487
 479    0.0090519486826485
 480    -0.017674773298891
 481     0.025047190124288
 482    0.0012145698319022
 483    -0.016659154540831
 484     0.029930205414381
 485    0.00064951054251168
 486    0.00056416816940733
 487    -0.001220174114512
 488    -0.00016151667310248
 489    -0.00050269502542982
 490    0.0019071733390667
 491    0.00027068650945691
 492    -0.0017497210000236
 493    0.00011562323434506
 494    0.00052006982492703
 495    0.00068739831984367
 496    -0.0037693343733699
 497    -0.011157201491009
 498    -0.0016176939182476
 499    -0.00015780640577547
 500    -0.00010368335548132
 501    -0.0044176086248238
 502    0.0011867190978859
 503    0.0013816983028041
 504    0.00013897140883138
 505    -0.00012681200868733
 506    -6.9513783341156e-05
 507    -0.00025322403948245
 508    -7.1766864240197e-05
 509    -0.0026107665476965
 510    -0.0061493159146389
 511    -0.023903928120592
 512     0.012033931621954
 513    -0.0024776426892461
 514    -0.0014945478973184
 515    -0.021030134083718
 516    -0.0044724056911153
 517    -0.0052843842454046
 518    2.0217913849059e-05
 519    6.6579121140014e-05
 520    0.00054571785629065
 521    -6.5345382964813e-05
 522    9.2384876269509e-05
 523    -0.0097894778135655
 524     0.019734696572818
 525    -0.0018900591821384
 526    -0.0011277785371421
 527    -0.00034109003272105
 528    -0.00036365457952396
 529    0.0013098458267042
 530    -0.00082402560505817
 531    -0.001077465686045
 532    -0.0011234330497793
 533    -0.010726339257169
 534     0.021305415083156
 535    -0.0018273150269815
 536    -0.00039176998023528
 537    -0.0011964862650553
 538    0.00016665352605359
 539    -0.0015167878350698
 540    -0.0001444166812642
 541    -0.00013565290058057
 542    -0.00018806573388158
 543    0.00033777630599903
 544    -0.0017850418119165
 545    -0.00015790564030803
 546    -0.00014856610384687
 547    -9.2541101254532e-05
 548    -3.914887447272e-05
 549    0.0081507355202535
 550    -0.00030434198570337
 551    0.00034095152719783
 552    0.00032556284853828
 553    0.00024536353275382
 554    0.0010414001207729
 555    -0.012083015053967
 556    4.1998632956459e-05
 557     0.001997571638501
 558    0.0069874160488307
 559     -0.00242690563347
 560    -0.0033071403674459
 561    0.0092266802067121
 562    1.0317495564046e-05
 563    0.00034393881615405
 564    3.7614004471967e-05
 565    -0.00014072040713159
 566    -0.0002180389022973
 567      0.00164063837586
 568    0.0047962431435462
 569    0.0058672202201497
 570    -0.0026375220759634
 571    -0.0025198016422592
 572    0.0011406717960038
 573    0.0032421105543669
 574    0.0021777668316339
 575    1.0423395121246e-05
 576    -0.00020947780998685
 577    0.00022821830146228
 578    -0.00012592789142342
 579    -0.00019556378733919
 580    0.0001657353575142
 581    0.0025577607119929
 582     0.002633620965231
 583    8.916727857576e-05
 584    0.0002702916041138
 585    -7.3963208540983e-05
 586    -0.00063217804744924
 587    -0.0018678407182344
 588    -0.00018343414610824
 589    -6.0354937648786e-05
 590    0.00011225766968137
 591    0.0056127932613527
 592    -0.0076341205639713
 593    0.00032436474457189
 594    0.00047177120265326
 595    -0.00091702596845631
 596    -0.0028639449479713
 597    -0.0010377363579911
 598    -6.8524092530653e-05
 599    -8.3113505067245e-05
 600    -6.6300083291222e-05
 601    0.0040124684623163
 602    8.3760404736098e-06
 603    -0.00034309240965833
 604    -1.4769444981172e-06
 605    -0.00017328438235051
 606    -0.0039705670860544
 607     0.015783965798171
 608    -0.00013621790131453
 609    -0.00049018346191992
 610    2.3231278861377e-05
 611    0.0017858302715737
 612    -0.0061212802342263
 613    -0.012729043850728
 614    0.0041576404723126
 615    -0.0017297162931696
 616    -0.00020278795744232
 617    -0.0031516092899953
 618    0.0029546316149942
 619    0.0043192745334814
 620    -7.7950616398992e-05
 621    -0.00055413097089992
 622    0.00034060385889232
 623    -0.00020562571164921
 624    -0.00011162571796266
 625    -0.0025418216850207
 626    -0.0080273375586156
 627    -0.010971649145543
 628    -0.0091478832531816
 629    2.3341109325591e-05
 630    0.0028388872176529
 631     0.014697523938863
 632    -0.00071568911930945
 633    -0.0026054880437783
 634    0.00072600866493684
 635    0.0014933932901859
 636    -0.00024210289621193
 637    -6.9634526634813e-06
 638    -0.00090400820388908
 639    -0.018293280920902
 640     0.015939429627917
 641    0.0034748588244192
 642    -0.0021239796977122
 643    -0.0023646635666914
 644    -0.00070560269819899
 645    0.00092702622172257
 646    3.7925902134949e-05
 647    0.00046561862283801
 648    0.0012542659345877
 649    -0.010006934074159
 650    0.00050568086721297
 651    0.0021664485830082
 652    -0.00087126316083978
 653    -0.0017172722903872
 654    0.00034286719147975
 655    0.0073334810391574
 656    0.0007437286747121
 657    0.00026432360687039
 658    -0.00036362352067919
 659    0.0015481711263232
 660    0.0018012452368663
 661    0.0002583414190001
 662    -0.00068257168940436
 663    -0.0002566371847749
 664    -0.0071221980708094
 665     0.012551386282703
 666    0.00022857308706327
 667    6.383644295872e-05
 668    5.9987841016577e-05
 669    0.00030727020486561
 670    9.5628415045406e-05
 671    -0.010038388773031
 672    0.00015762385264815
 673    0.0011969581934258
 674    0.0073973109343721
 675    0.0021236087368464
 676    -0.0058622278718695
 677    0.0072355308702733
 678    -8.2889980557589e-05
 679    -0.00021024278454588
 680    1.8215111136546e-05
 681    -0.00017839458878928
 682    0.00021428902553502
 683    0.0014447633621829
 684      0.00247430568079
 685     0.013723538855142
 686    0.0035774157299278
 687    -0.0020042037960561
 688    -0.00014342882342222
 689    -0.0043423196519616
 690    0.0037427328542038
 691    0.0001908854932814
 692    -0.00023335200382891
 693    4.6477750550315e-05
 694    -0.00019033964470084
 695    -0.00020041290139891
 696    -2.4094357892409e-05
 697    -0.0017832173151862
 698    -0.00054229897654536
 699    -0.00031458059865574
 700    0.00018859720401099
 701    7.1081841172544e-06
 702    0.0010941602999994
 703    -0.009994766171381
 704    0.00010511225711052
 705    0.00043537990856258
 706    -0.00065604981811389
 707    -0.0015454699040486
 708    -0.0018729304645326
 709    0.00021811243504521
 710    -8.9175443813599e-05
 711    0.00017413879164999
 712    -0.0055396389117886
 713     0.014023340987405
 714    -2.7101600521503e-05
 715    -0.00065889666210286
 716    9.5184930639607e-05
 717    0.0036760881887593
 718    0.00049285694877956
 719    0.00042915433294696
 720    5.1544949199006e-05
 721    -0.00021327344980628
 722    -0.0032526646641127
 723    -0.0021422259532855
 724    5.6674462361989e-05
 725    -0.00012876882749653
 726    0.00012916128298961
 727    2.422305783901e-05
 728    0.00069596862157217
 729    -0.0071681173395525
 730    -0.00046453089579006
 731     0.007690511681242
 732    0.0019634454982416
 733    0.0018396410122298
 734    0.0086599974006252
 735    -0.0034213541044609
 736    0.00017440126782849
 737    0.00027665328047914
 738    7.1344893994491e-05
 739    -7.5169948907651e-05
 740    -0.0001164393777023
 741    0.0014294018349647
 742    0.0033370373266472
 743    0.0086669225846772
 744    0.0039435781184855
 745    -9.6765045542786e-05
 746    -0.0019432159102679
 747    -0.0027530957679537
 748    -0.0021940101342482
 749     0.001698711314743
 750    0.00026241726419078
 751    -1.8425624874168e-05
 752    -0.00024887895428222
 753    6.9777608247141e-05
 754    -7.8968984058059e-05
 755    -0.0023984269913405
 756    -0.0031546975783671
 757    -0.00021793244491387
 758    -2.335474508284e-05
 759    0.00020907220108761
 760    -0.00058905784851716
 761    -0.00040957994386153
 762    6.8087442470268e-05
 763    6.140967612486e-05
 764    -1.1932407770448e-05
 765    0.0034252928664136
 766    -0.0057528964140237
 767    -0.00016470780162119
 768    -0.00086280010391143
 769    0.00028129342749108
 770    -0.0030530021205438
 771    -0.001797955635394
 772    -3.7511791221066e-05
 773    0.00017014605896243
 774    -9.6517123451972e-05
 775    0.0044227037702981
 776    -0.0015943399658995
 777    0.00046438211363547
 778    -0.00020094069768945
 779    -0.00026105369928002
 780    -0.0034609423707352
 781     0.012305438979517
 782    -9.0640947332682e-05
 783    2.9562484718668e-05
 784    -0.00031828475053331
 785    -0.0047608738391761
 786     0.014672050569125
 787     0.020514945168144
 788    -0.0071694364794005
 789    -0.0055186740943248
 790    -0.0050739200096447
 791    -0.017901731763411
 792    -0.011717613660559
 793    -0.011330587797647
 794    0.00032373749782399
 795    -0.00064197509428825
 796    -0.0003142071390862
 797    -0.0010401576346465
 798    0.00035061015552641
 799    -0.00022360455497206
 800    -0.0020453902052734
 801     0.015486182064673
 802    -0.0010907198027199
 803    -0.00024717082720004
 804    -0.0012832100035864
 805    -0.0062434862089379
 806    0.0018761872428818
 807    -0.00076553398356444
 808    0.00013740566190135
 809    0.00020174896721465
 810    -2.4301437849145e-06
 811    0.00010813129451287
 812    0.00031007563627054
 813    0.00050165798528064
 814    -0.00051156145120378
 815    -5.6352313982812e-05
 816    0.00045004150138246
 817    0.00061185843723308
 818    -0.0013833767613567
 819    0.0025305561270014
 820    0.0003605584413667
 821    -0.00023621450140747
 822    -0.00039562429410876
 823    -0.00054004403801655
 824    -0.001167512425981
 825    0.00019893572081305
 826    -0.00044784700632165
 827    0.00022792639079619
 828     0.014475922891417
 829    -0.016041782901305
 830    -0.00041440268532394
 831    -0.0015882281097335
 832    -0.00055143865697303
 833    0.0076469495291306
 834    -0.011526298435263
 835    0.0012496749588345
 836    0.00051664222742607
 837    0.0010332095317112
 838     0.018304295199888
 839    -0.019828639071657
 840    -0.0007051747880004
 841    -0.0013878550325365
 842    -0.0018551396726047
 843    -2.4670612275752e-05
 844    0.00014915066466599
 845    0.00049185097139257
 846    -1.5156970017402e-05
 847    -5.7008332051458e-05
 848    -0.00019449567620469
 849    -0.00014282055649583
 850    0.0004816622914512
 851    0.00017227002054853
 852    4.4574994433084e-05
 853    3.1174906182185e-05
 854    1.0533753046967e-05
 855    2.1325789795068e-05
 856    2.9105367312676e-05
 857    -1.4334600136877e-05
 858    5.956174404311e-05
 859    -0.000316115478221
 860    -7.2849892914082e-05
 861     0.001236072904498
 862    0.0011200668123871
 863    -0.00013576865484659
 864    -0.0011979112813095
 865    -0.0016284118218897
 866    -6.8827310688878e-06
 867    -3.3425365702951e-06
 868    1.1346848489707e-05
 869    3.9520884012231e-06
 870    5.4208460536744e-05
 871    0.00081786823942134
 872    -0.001689941199076
 873    -1.4731884727468e-05
 874    0.00010063605205899
 875    -0.00023144325562019
 876    -0.0002078274982149
 877     0.001876341012187
 878    -9.3911340483685e-05
 879    -2.6093396943269e-05
 880    0.00019321340169273
 881    0.00043779955798685
 882    -0.00012591077330934
 883    7.8713826167514e-07
 884    -3.029948678416e-05
 885    -0.00018411789919184
 886    -5.083050797137e-05
 887    -7.1485249360302e-05
 888    -1.3264263377224e-05
 889    -2.6484092390007e-05
 890    -2.9345611350886e-05
 891    -0.00012814997632772
 892    6.4285987017804e-05
 893    1.4596601168338e-05
 894    2.4350841449583e-06
 895    -1.9508090217499e-05
 896    0.00018369997053633
 897    -0.00025233886151927
 898    -4.815550287077e-06
 899    -2.1764410275507e-05
 900    -1.941627625872e-05
 901    -5.3735277376693e-05
 902    0.0017025331440246
 903    -0.0097081705089643
 904    0.00086186972998723
 905    0.0070782457468725
 906    0.0021898601594742
 907    -0.0010788062299721
 908     0.010901398053233
 909     -0.00244891465416
 910    -0.00012437356455653
 911    -0.00036159158738466
 912    9.6693848017756e-05
 913    -5.8501937698199e-05
 914    0.00016525351528335
 915    0.0020083265238255
 916    0.0051301041340882
 917     0.010837151959766
 918      -0.0035369281167
 919    0.0012361476413222
 920    -0.0030230562742222
 921     0.005188252740956
 922    -0.001895056431157
 923    0.0048289391739106
 924    0.00054881775905914
 925    0.00036597500869781
 926    -0.00017425547132162
 927    0.00011470628006081
 928    0.00029587417849628
 929    -0.00027277720407218
 930    -0.0011594452464846
 931    -4.2291772330876e-05
 932    -2.9804426992284e-05
 933    -0.00020602580826259
 934    0.0012940682702492
 935    0.0028788158532583
 936    5.3707639862499e-06
 937    3.4808210224593e-05
 938    0.00012979037153777
 939    0.0067561903344376
 940    -0.015785058741513
 941    0.00067439960965939
 942    -0.0011809969940235
 943    0.00093590532113903
 944    -0.0027618283772476
 945    -0.00033046063446427
 946    3.6571017613506e-05
 947    -5.5185706740943e-05
 948    6.2067696645272e-05
 949    -0.0014540360382892
 950     0.014605529152108
 951    2.2254337187251e-06
 952    -0.00018025541330318
 953    -0.00019118077225188
 954    0.0043644668085724
 955    -0.0028041283172224
 956    -0.00039319307400481
 957    -8.5826344429441e-05
 958    -0.00026651887129047
 959    -0.0055691047072143
 960     0.016508764909379
 961     0.030029568943226
 962    0.0065548234579152
 963    -0.0059533252363946
 964    -0.0093614982510673
 965     0.013766857753342
 966    -0.0092459794349335
 967     -0.01634942435289
 968    0.00071879444554044
 969    -0.0012210710791199
 970    -0.0006509294967778
 971    -0.0010052896081072
 972    0.00051950023414994
 973    0.00018053258370927
 974    0.0005474227839909
 975    0.0095468884668122
 976    0.00061445749132554
 977    -0.00044499130116957
 978    0.00057793456809691
 979    0.0022033604696943
 980    0.0017014022086468
 981    0.0056713682984704
 982    -2.2240635690125e-05
 983    -0.00030105869741189
 984    -8.4512692850636e-05
 985    -6.2761674488635e-05
 986    -8.0581708828489e-05
 987    0.0045494943279829
 988    -0.0062190520157671
 989    -0.00022185656787567
 990    0.00032395911888726
 991    1.3727497540043e-05
 992    -0.0013792859551391
 993    0.0023535216206858
 994    -0.000180502800225
 995    -0.00071320566447918
 996    -8.9174098287884e-05
 997    9.5961165911373e-05
 998    -0.0017320701310339
 999    6.0405526696671e-05
 1000    0.00030530063709351
 1001    -0.00079230800610969
 1002     0.017827904958701
 1003    -0.017569016790001
 1004    0.0010040245227257
 1005    -0.0005939613606066
 1006    -0.0019193101159681
 1007    0.0045649890534914
 1008    -0.0078287587306636
 1009     -0.00160076322443
 1010    0.00097103752127943
 1011    0.00051630927838796
 1012     0.023699299198535
 1013    -0.026578409252088
 1014    0.0013614437548044
 1015    -0.0024885228573932
 1016    -0.0018947506101032
 1017    0.00031943542823597
 1018    -0.0011638011780416
 1019    -0.0044462053833256
 1020    -0.00032007710987126
 1021    0.00048768342462777
 1022    -0.00044466532614065
 1023    -0.00017792073731053
 1024    0.00025423225112574
 1025    -0.00018921225310357
 1026    -2.6226362811593e-05
 1027    -2.9829103811978e-05
 1028    3.8675891570491e-05
 1029    8.8890349060208e-06
 1030    9.454773618405e-07
 1031    -0.00033644727669567
 1032    -0.00089264317770865
 1033    -0.0034556670822368
 1034    -0.0011464754721965
 1035    -0.00065686145287946
 1036    0.0018576998585253
 1037    0.0010007968239139
 1038    0.0034441103743989
 1039    -0.0038010744364001
 1040    1.2748560218842e-05
 1041    3.8594820708945e-05
 1042    4.7083363258107e-05
 1043    9.7942173242565e-06
 1044    -8.6006112992266e-05
 1045    -0.00099581327047511
 1046    -0.0012245463956924
 1047    -0.0002597910120255
 1048    0.00032275074686975
 1049    0.00010670533102255
 1050    -0.0018444986607016
 1051    0.0011267789881457
 1052    -0.00020209982421644
 1053    0.00015548702623167
 1054    -0.00048248590839662
 1055    -0.0017793757271301
 1056    0.0071883349642467
 1057    -0.00010410238024538
 1058    0.00041317663051425
 1059    -0.00037825677622843
 1060    -0.00018817651990418
 1061    0.00092779519466872
 1062    -5.9652133907334e-05
 1063    2.688717869613e-05
 1064    -3.4693908844636e-05
 1065    -0.00013439281167915
 1066    0.0018790180174393
 1067    2.4786367144688e-05
 1068    -1.9948261307271e-05
 1069    -0.00010397195077798
 1070    1.8277918762027e-05
 1071    0.0011616217373064
 1072    2.3387906167116e-05
 1073    9.1164810240038e-05
 1074    7.7761889750341e-06
 Sym= A
 Ene=               0
 Spin= Alpha
 Occup=    0.00000
   1    0.0020706321837611
   2    0.00028240235200956
   3    -0.0033324364249928
   4    -0.0010145741665146
   5    0.0038870449419418
   6    -0.013016216609236
   7     0.019852751484281
   8     0.004050333323525
   9    -0.013598730274701
  10     0.020746525523319
  11    -0.012687138819997
  12     0.042338408134354
  13    -0.063930436303032
  14    -0.013235224151178
  15     0.051153073854538
  16    -0.080118514434286
  17    0.00054475603692002
  18    0.00064883036465938
  19    -0.00065886796377459
  20    0.0024710373005004
  21    -0.00079856231757634
  22    -0.00032040151989934
  23     0.001201821065697
  24    0.00043163909835845
  25    -0.0019603073676335
  26    -0.00076580487821603
  27    -0.0020598022499562
  28    -0.0040665216954194
  29    0.0094434401500464
  30    0.0067331916625794
  31    -0.00017648622229199
  32    -0.016313680425144
  33     0.020534712682561
  34    -0.00010543543372396
  35    -0.021796629425341
  36     0.027461891527858
  37    0.00010549045046589
  38     0.061258450435058
  39    -0.076141487147551
  40    0.00056138379821775
  41     0.065685440623931
  42    -0.085684829678096
  43    0.00025066242345981
  44    -0.0074138030846811
  45    7.8590815675987e-05
  46    0.0014653448378391
  47    0.0059106012707661
  48    0.0022542253169378
  49    -0.0099041356592351
  50    0.00013528948976306
  51    0.00042206075529395
  52    0.0076631670513905
  53    0.0036786852402109
  54    0.0072406516257107
  55    -0.015442004655564
  56    -0.013103388328098
  57    -0.00056035089789002
  58    -0.0046403971223641
  59    -0.0028275368933922
  60    -0.00017668884777954
  61    -0.0063814200726401
  62    -0.0034668077876264
  63    0.0028670628698984
  64     0.016822356051775
  65     0.010542574856787
  66    -0.0029342130514457
  67     0.020781869654639
  68    0.0088826275409932
  69    0.00034753898545119
  70    -1.7742762704217e-05
  71    -0.00066504423361033
  72    0.00067155830478785
  73    -7.5151074538593e-05
  74    0.00052207965488243
  75    -0.00017729450881055
  76    -0.0011614440921556
  77    0.00072934483923418
  78    -0.00014263776905155
  79    -0.0067668546361472
  80    -0.012974985223197
  81     0.029658911929209
  82       0.0199213356171
  83    -0.00057958123243023
  84     0.002898050366633
  85    0.0085910568543192
  86    -0.0013041148246916
  87    0.0035823800599256
  88     0.011708770007981
  89    0.00080378094905981
  90    -0.010733164040129
  91     -0.03104504161906
  92    0.0075247382503267
  93    -0.0090184569589791
  94    -0.036896442017022
  95    0.0012311550505813
  96    1.2431942399795e-05
  97    0.00086948026795507
  98    -4.8117592943875e-05
  99    0.00017175299661685
 100     0.002009144100209
 101    -0.00046782324861779
 102    0.00069518637844807
 103    0.00025296630507326
 104    -0.00028684503427348
 105    0.00081325794306739
 106    0.0019607647544032
 107    -0.0042778037411091
 108    -0.0028688014994211
 109    0.0014509146874499
 110    0.0020321703760733
 111    -0.0035857803351655
 112    0.0019620091971686
 113     0.002527303230288
 114    -0.0044554105825698
 115    -0.0053463114047039
 116    -0.0076530852378062
 117     0.013313749664905
 118    -0.0051916915318378
 119    -0.0059489534674972
 120     0.010744056883597
 121    7.9233888709154e-05
 122    0.0009098944056539
 123    -0.00027418397307496
 124    -0.00028355191157308
 125    -0.00056572767812148
 126    -0.00019968049266097
 127    0.0011825169834953
 128    0.00054951832785169
 129    -4.2975626659764e-05
 130    -0.00066858332143098
 131    -0.0053343830733979
 132    -0.010918863009357
 133      0.02689593767775
 134     0.012370545372778
 135    0.00083590556369678
 136    -0.0077678717174496
 137    -0.0020788701171579
 138    0.00047929927004172
 139    -0.010327010953586
 140    -0.002255557304174
 141    -0.0034601701475602
 142     0.029052479825901
 143    0.0075665820404389
 144    0.0015656349388616
 145     0.028448048737832
 146    0.0037415196335496
 147    -0.00079604576089362
 148    -0.00020528209287339
 149    0.00049828416010004
 150    -0.0012297941400717
 151    -9.5230605697567e-05
 152    -0.0010622574017644
 153    -3.625040268432e-05
 154    0.00041044089464695
 155    -0.0012592370280791
 156    3.6125729929505e-05
 157    0.0067564800490371
 158      0.01408522724776
 159    -0.032962758729172
 160    -0.020087002346258
 161    -0.0021634264797311
 162    0.00037773431392529
 163    0.0088585611823917
 164    -0.001949974551986
 165    0.00010920229716293
 166      0.01198488258086
 167    0.0083995064679412
 168    -0.001015575317993
 169    -0.033617053230565
 170    0.0014816522554172
 171    0.0006891009703945
 172    -0.035364026417816
 173    -0.0016970868895489
 174    0.00025085337033518
 175    0.00014209202448477
 176    -2.2202257194924e-05
 177    -0.00016861168084741
 178    -0.0019122760530933
 179    0.00075653207233186
 180    -0.0003525622725189
 181    -0.00035749504156951
 182    0.00051720895409645
 183    0.0084539500828633
 184    0.0015701014228092
 185    -0.013366630215131
 186     -0.01408603702644
 187    -0.0053708964376381
 188      0.13082035404828
 189     -0.15928971336407
 190    -0.0056505672956116
 191      0.13726980221477
 192     -0.16738671420811
 193     0.016411658624091
 194     -0.41149659690088
 195      0.50124657546512
 196     0.017810513334703
 197     -0.56971737214145
 198      0.69610978974148
 199    0.0066332650415179
 200    0.0013106257124733
 201    -0.0016943946854796
 202    0.0066069721604436
 203    -4.6736039109189e-05
 204    -0.0016357260607427
 205    -0.00047253421212448
 206    -0.00048005234333415
 207    -0.0028868800348002
 208    0.00017319125840851
 209    0.0059316736421346
 210     0.013394087112487
 211    -0.034506248137575
 212     -0.01199649032705
 213    0.0011728568793189
 214     -0.01624448781822
 215     0.019585173821743
 216    0.0014763058014495
 217    -0.021734216206868
 218     0.026098839912195
 219    -0.0033298029443972
 220     0.060554001144831
 221    -0.073711964649057
 222    -0.007850675762133
 223     0.066797160742357
 224    -0.078890826315129
 225    0.0017943355074722
 226    0.0074648577130695
 227    -0.0002512944379882
 228    -0.0013108353796221
 229    -0.0065778189683525
 230    0.0026401379686143
 231    0.0093646728816415
 232    0.00045770745368442
 233    -0.00026635406993366
 234    -0.0082119939439561
 235    -0.046210806282341
 236    -0.095486370751943
 237      0.22539649939351
 238      0.14713159095223
 239    0.0002662601241815
 240      0.05470964063999
 241     0.014802908081377
 242    0.00024895379800325
 243      0.07504028767031
 244     0.018707514473596
 245    -0.00074358176932869
 246     -0.21242961330261
 247    -0.054876327841825
 248    -0.00080544510920403
 249     -0.23585406977339
 250     -0.04807312121942
 251    -0.0063243176322535
 252    -0.00015858678351647
 253    0.0037839037722644
 254    -0.011246770151065
 255    4.0648475668334e-05
 256    -0.0080602222867529
 257    9.6546863862854e-05
 258    0.0058431287391718
 259    -0.010015263272568
 260    -0.00018968362652374
 261     0.054317784545625
 262       0.1117541530978
 263     -0.26273108719855
 264     -0.17265138790616
 265    -0.00077599235822022
 266    -0.0077685470393189
 267    -0.063520010278476
 268    -0.0010047225362986
 269    -0.0096738624136282
 270    -0.087259447463439
 271    0.0029077447525554
 272     0.028766579712468
 273       0.2464715424328
 274    0.0027344855457682
 275     0.020954972308278
 276      0.27308816896718
 277    -0.014175467977412
 278    -0.00029942153028355
 279    -0.0019010797126836
 280    0.00028819309659605
 281    -8.5276067056912e-05
 282    -0.014875683151056
 283    -0.00041027465211781
 284    -0.0024324617028112
 285    -0.0018016057169964
 286    -9.385642818739e-05
 287     0.037209662745575
 288     0.073273306251557
 289     -0.16670721597303
 290     -0.12473529533684
 291    7.9278496624424e-05
 292     0.043128976442704
 293     0.022186675047024
 294    -9.7524076550378e-05
 295     0.059506809526585
 296     0.028107100151896
 297    -0.00034837483785245
 298     -0.16299002800005
 299    -0.083715835467587
 300    0.0014122246375804
 301     -0.19044174703972
 302    -0.075400718671187
 303    0.0034298760882586
 304    2.4879211959068e-05
 305    -0.006206932215025
 306    0.0067134011899812
 307    -1.9725040803884e-05
 308    0.0046565783842575
 309    0.00019766954740557
 310    -0.0093666606325529
 311    0.0089599962645909
 312    -1.8212391695823e-05
 313    -0.048536403834894
 314    -0.096652560801581
 315      0.22124466211067
 316      0.16231591244007
 317    0.0018136200620082
 318    -0.020637014988525
 319    -0.057435806172118
 320    0.0023079961797093
 321     -0.02644846567688
 322    -0.078816438503612
 323     -0.00581779778168
 324     0.077285505908742
 325      0.21717813183907
 326    -0.010048268436674
 327     0.075150124500676
 328      0.25118353106733
 329     0.010609203550303
 330    -0.00013723872967679
 331    0.0058444680191948
 332    -0.00030795910750351
 333    -0.00014065541258073
 334     0.013391026110515
 335    -0.0014753684849973
 336    0.0089514750574103
 337    -0.00032386478222133
 338    0.00045728180964916
 339    -0.0024034730301346
 340    -0.00037567320562902
 341    0.0043637892526092
 342    0.00086465078848464
 343     0.012371019797382
 344    -0.023762300073864
 345      0.01622822557973
 346     0.013066802373697
 347    -0.024929480747416
 348     0.017010345874968
 349    -0.039069344321615
 350     0.075879486586867
 351    -0.052728313384291
 352    -0.048952814780077
 353       0.0978371578611
 354    -0.066220280241856
 355     0.003275082698192
 356    -0.0016391383319268
 357    0.00039735410115213
 358    -0.0024015033585752
 359    -0.00030228422412219
 360    -0.0019664978494319
 361    -0.00082012652021586
 362    -0.00017344760606419
 363    0.0013276351816936
 364    0.0012946274691214
 365    -0.0035671326439606
 366    -0.0074034565013851
 367     0.017174014535145
 368      0.01059050689275
 369    0.0048470400138251
 370    0.0047713531903554
 371    -0.001705340385721
 372     0.006590073615638
 373    0.0060134019525078
 374    -0.0021061951440392
 375    -0.017999864958318
 376    -0.017356179007782
 377    0.0064026584989102
 378     -0.01890554417222
 379     -0.01577782335768
 380    0.0050833376627155
 381    -0.00045006055898137
 382    -0.00044213030663673
 383    0.00038556543122805
 384    0.00051725774807893
 385    0.0010277821937784
 386    -0.00087230584238628
 387    -0.000681890200064
 388    -0.00070479494503508
 389    0.0004584119987906
 390    0.0018763947539799
 391    0.0082305464331518
 392     0.015949624299594
 393    -0.037348916138207
 394    -0.023364585088729
 395    -0.0012245487523213
 396    -0.010291565983009
 397    -0.0035776739622615
 398    -0.0019540557404391
 399     -0.01398760377212
 400    -0.004459301423252
 401    0.0035995624714309
 402     0.037722223839295
 403     0.013248135353973
 404    0.0077363578618226
 405     0.043459789725601
 406     0.011605378063336
 407    0.00070398414936301
 408    0.00022659984722968
 409    -0.0010440277575886
 410    0.0014180453661982
 411    -8.3169467738515e-05
 412    0.0013764351465111
 413    -0.00046329223980904
 414    -0.0010072188117218
 415    0.0020819278936878
 416    -0.00084768457795259
 417    -0.0045582682009645
 418    -0.0090671088973874
 419     0.019449413919311
 420     0.016513598379137
 421    -0.0017328556540955
 422     0.003256892892405
 423    0.0057765751710202
 424    -0.0015221116644664
 425    0.0039827736138121
 426     0.007946091206695
 427    0.0073817794776924
 428    -0.012067363085483
 429     -0.02098921523376
 430    -2.6959442829905e-05
 431    -0.010711290901686
 432    -0.026115130396312
 433    0.00094369965471659
 434    -0.00033024159665621
 435    0.00077024165600196
 436    -4.0064996243283e-05
 437    -2.2798806998535e-05
 438    0.0011538480499264
 439    -0.00064275974452192
 440    0.0014962721440047
 441    0.00018485541551001
 442    -0.00034784265130254
 443    -0.0077834899496767
 444    -0.015888406627257
 445     0.036951458275971
 446     0.024033680919306
 447    -0.003377223051528
 448    -0.0097872594021455
 449    -0.00061259813382315
 450    -0.0036568907456762
 451    -0.013354406597662
 452    -0.00063056513177967
 453     0.012840923036647
 454     0.037200777093421
 455    0.0019982604127346
 456    0.0066004832826888
 457      0.04065543304512
 458    0.0018836448531981
 459    -0.0010019314840149
 460    -0.00023874223600936
 461    -5.8225409532867e-06
 462    -0.0015951474900652
 463    0.00062690274740246
 464    -0.0014881964573913
 465    0.00047464626846699
 466    0.00055508024401386
 467    -0.0016950217505241
 468    0.0011314762812597
 469    0.0067626433842463
 470     0.014040533312094
 471    -0.034030434494344
 472    -0.017573359331431
 473    -0.0006731644619182
 474    0.0026385006077351
 475    0.0099248175126436
 476    -0.0014466498915209
 477    0.0030115153529548
 478      0.01320904642569
 479    0.0017097211721587
 480    -0.0097162249001897
 481    -0.037242795204486
 482    0.0073899860086751
 483    -0.0059472964722173
 484    -0.037135045239289
 485    -0.0018680378644674
 486    0.00022487433608852
 487    -0.00063498698116143
 488    -1.5247249249789e-05
 489    -0.00034639965513348
 490    -0.0023159367820704
 491    0.00068822458319779
 492    -0.00072074155203634
 493    -0.00044327829514407
 494    9.162256220122e-05
 495    -0.00011381885136785
 496    0.00056778862366403
 497    0.0024730201934425
 498    0.00032116369461315
 499    -0.00080106104071398
 500    0.00091109957709998
 501    -2.98765711567e-05
 502    -0.002524570382072
 503    0.0023327732423093
 504    5.370133472007e-05
 505    -9.0518723242111e-05
 506    -1.3760494518697e-05
 507    7.8387227630953e-05
 508    0.00011746863882523
 509    0.00046107124834534
 510    0.0012026686444969
 511    0.0032876522469367
 512    -0.0016365634386038
 513    -0.005319523716854
 514    0.0055445658166328
 515    0.0029571883321873
 516    0.0096716901765005
 517    -0.0081299157310676
 518    -0.00013870930441028
 519    -0.00055773435150608
 520    -3.4659764722782e-05
 521    -0.00010302752141785
 522    0.00052053168398989
 523    0.0048931007392256
 524    -0.018447844190346
 525    0.00049865496460481
 526    0.00085444300815334
 527    0.00046095589386792
 528     0.001123421893182
 529    -0.0012840577379014
 530    0.00015364217920545
 531    0.00065749463987541
 532    -0.00022614690794336
 533    -0.0022592916534131
 534     0.013979089890358
 535    -3.2653460686511e-05
 536    -0.00027501559091021
 537    -0.00054211449558554
 538    -0.00076754742973799
 539    0.0019085957769535
 540    5.1675855158947e-05
 541    0.00012795616428303
 542    -1.2575620003373e-05
 543    0.00059159551927529
 544    -0.0029849141157321
 545    7.498087417149e-06
 546    5.2237361912881e-06
 547    -5.5875933594562e-05
 548    3.8808890822905e-05
 549    -0.001092603456077
 550    7.5715657701055e-05
 551    5.2471789922735e-05
 552    -9.4166003269404e-05
 553     0.002997008684274
 554    -0.0079959601518658
 555    -0.016196116688978
 556    -0.0063149736119552
 557    -0.0025849538331615
 558    0.0025355761083317
 559    -0.0025905223024774
 560    -0.0080229456991356
 561    -0.0059181699060763
 562    -0.00035249813841759
 563    0.00076018163280735
 564    -0.00037264183668351
 565    -0.00028115302423004
 566    0.00057688606356468
 567    -0.0014932456628444
 568    -0.0056829612910721
 569    0.0033705962176034
 570    0.0044401835512735
 571     0.002811535475489
 572    0.00014425150873371
 573    -0.0010022970478944
 574    -0.0010256360314061
 575     0.011270876792442
 576    0.00016082007156439
 577    -0.00054955256409427
 578    0.0001460205412012
 579    0.00032960821534131
 580    -0.00037025331029387
 581    0.0035621891230794
 582    0.0085594403122282
 583    0.0006099739990884
 584    8.1006121085613e-06
 585    0.00013260532168504
 586    -0.0048019335279091
 587    -0.004719150798681
 588    -0.00091065696213634
 589    -1.68206758403e-05
 590    0.00068245647030757
 591    -0.010583561156849
 592    0.0059716104213317
 593    -0.0010791555985843
 594    -0.00018044598527531
 595    0.0012759513100057
 596    -0.00052208161643038
 597    -0.00018695289205225
 598    -0.00066387165087474
 599    -0.00021198448049505
 600    7.9636081296207e-05
 601    -0.003443236670942
 602     0.014430918132177
 603    8.7144486218018e-05
 604    0.0014982658172852
 605    -0.00014602987204666
 606    -0.015250850865616
 607    0.0070578065721521
 608    -0.00016662848862476
 609    -0.0020506764782853
 610    0.00052899869794799
 611    -0.0010956329419336
 612    0.0031490070640443
 613    0.00038313350611177
 614    -0.004869919786274
 615    0.0024136923230495
 616    -0.0019884766188814
 617    -0.0060887070305247
 618    0.00045537190277351
 619    -0.005410407309441
 620    -1.9840461082226e-05
 621    0.00023479810372384
 622    -9.0875234562301e-05
 623    7.8034583920419e-05
 624    -0.00012924172364863
 625    -0.00056214359460703
 626    -0.00097186108828387
 627    -0.003916540331744
 628    -0.0017878984582673
 629    -0.0018447793799739
 630    0.0019230955568227
 631    0.0050991899005877
 632    2.7375745722843e-05
 633    -0.004095275982823
 634    -8.4109708465683e-05
 635    0.00019361397938914
 636    4.4942976903835e-05
 637    -0.00036693849188001
 638    -3.8385415230533e-05
 639    -0.0020534403982073
 640     0.010858607771756
 641    9.0514796887393e-05
 642    -0.0001547270479266
 643    -0.00038181319401961
 644    -0.00071085840899479
 645    0.0015946507461809
 646    -0.00026019094406099
 647    7.0096287751448e-05
 648    1.8903087641103e-05
 649    0.0052838715256651
 650    -0.0016402887121712
 651    -0.00081952881038202
 652    0.00056477260472168
 653    0.00023170953261335
 654    -0.0014464215793448
 655    -0.00018705190002894
 656    -0.00015417657700845
 657    6.4425915952855e-06
 658    0.00015589275894932
 659    -0.00048834880715998
 660    0.0018767579352336
 661    -7.228064542834e-05
 662    0.0002915260110372
 663    0.00017938914593397
 664    0.0040927798698195
 665    -0.0084818048302203
 666    0.00029488288613465
 667    -0.00022405867288509
 668    -3.6802819974345e-05
 669    0.0028336666300194
 670     -0.00805250327086
 671    -0.014020430793607
 672    0.0060973666668639
 673    -0.0024346980724253
 674    0.0025270503305152
 675     0.002066191656354
 676    -0.008195031741293
 677    -0.0070260226713635
 678    -0.00041504126835749
 679    -0.00067083205294561
 680    -0.00031718847023051
 681    -0.00022523931866853
 682    -0.00057626397789816
 683    -0.0014334084174999
 684    -0.0055892691556809
 685    0.0042098351967617
 686    -0.0047053573531218
 687    0.0032549095574583
 688    0.00068406754892818
 689    0.0011263750332045
 690    -0.003624874374041
 691    0.0088608115830489
 692    0.00015757649670148
 693    0.00044570510445388
 694    0.00012789408546951
 695    0.00029618732166393
 696    0.00036608517744363
 697    0.0035926549626871
 698    0.0034252121363295
 699    -0.00067881295167215
 700    8.2535121798821e-05
 701    2.3207844688285e-05
 702     -0.00982910834503
 703    0.0097414922700692
 704    0.0010347821063495
 705    -0.00012500629016877
 706    0.0013838506403054
 707    -0.004763231997738
 708    -0.003986022310347
 709    0.00077075172088861
 710    2.1881067322971e-05
 711    0.00065281053266859
 712    -0.015060916851806
 713    0.0051218930473313
 714    0.00018103045703609
 715    -0.0020290725196675
 716    0.0004311718133827
 717    -0.0033221598040825
 718     0.013854071395799
 719    -5.9898277259052e-05
 720      0.00149133821977
 721    -8.4722808362934e-05
 722    -0.00078730084537311
 723    -0.00066881578579128
 724    0.0006894173965082
 725    -0.00019053010329115
 726    0.00014337259551961
 727    -0.0029934183589243
 728    0.0076863616660399
 729      0.01793827389971
 730    -0.006278903664022
 731    -0.0040054987315719
 732    0.0019084765966722
 733    -0.0032600424633903
 734    0.0038895677574578
 735    0.0092711566316276
 736    -0.00040894144302206
 737    0.00051206190708752
 738    0.00036440296079639
 739    -0.00020417018512008
 740    0.00077104339961289
 741    0.0011159134718243
 742    0.0046606608658538
 743    -0.0057139319912794
 744    0.0038104490959566
 745    -2.9468778304637e-05
 746    -0.0022851244048653
 747    0.00069509714656941
 748    -0.011761746334976
 749    0.00031906711750854
 750    0.00028327121116093
 751    -0.00033660905703056
 752    -0.00010329359945853
 753    -7.4312801757262e-06
 754    -0.00044776670039651
 755    -0.0049275092948885
 756    -0.0093113759971142
 757    0.00056820377135842
 758    1.2514290028623e-07
 759    -0.00013211715698946
 760    0.0049218911253674
 761    0.0055856458914279
 762    -0.00089685343044708
 763    -0.00074267099030184
 764    6.6553773816526e-05
 765    0.0094309593492902
 766    -0.0031340718600066
 767    -0.0010290182932721
 768    -0.0011304437810601
 769    -1.7704231756097e-05
 770    0.0012990525514783
 771    0.00099892589751208
 772    -0.00070485868938019
 773    -6.9744189791707e-05
 774    0.00023673139196984
 775    0.0028165515257764
 776    -0.014400751916178
 777    1.9932649910021e-05
 778    0.00016350235244111
 779    -0.0015531843067555
 780     0.015397022418814
 781    -0.0093545935387211
 782    -0.00022639516973225
 783    -0.00049939421631955
 784    0.0021586361195783
 785    0.00067335626094497
 786    -0.0019796721061265
 787    -0.0041662364430051
 788    0.00078532306156947
 789    0.0087038211287582
 790    -0.0046508606765176
 791    0.0029819253795727
 792     0.011391048543413
 793    -0.00058177954112587
 794     0.000567773357917
 795    -0.00013252916734179
 796    0.0004142723618329
 797    0.00051187704189628
 798    -0.00033947789876619
 799    -0.00038931210342193
 800    -0.00084670430323874
 801    -0.0049393448256981
 802    -0.00046512550689936
 803    0.00079723063180128
 804    -0.00064627442059975
 805    0.0025867722659767
 806    -0.0016704732876125
 807     -0.00173300769485
 808    5.9460525455913e-06
 809    7.6563174718127e-05
 810    -6.1290110912086e-05
 811    5.5557991631007e-05
 812    -0.00025363495266793
 813    -0.00086493212568341
 814    -3.9085281781476e-05
 815    -0.00014094937633046
 816    0.00016936689213668
 817    0.00012918472378468
 818    -0.0013771357197432
 819    0.00032525392516709
 820    0.00012243532380571
 821    0.00014550703397606
 822    5.7657046423318e-05
 823    0.0011949399637482
 824    0.0033395311213541
 825    -2.1555678210451e-05
 826    -1.4113409465129e-05
 827    -0.000434043028139
 828    0.0061820971508505
 829    -0.0058184921268185
 830    -2.8717663768614e-05
 831    -0.00027430802491834
 832    -0.00058555915381648
 833    0.0020311279596919
 834    -0.0040021256110383
 835    -0.00012504916019411
 836    -0.0001094232169194
 837    5.1740113506855e-05
 838     -0.01131941965897
 839     0.019246308517921
 840    0.00010313751112145
 841    0.00076900858477547
 842    0.00046046352142466
 843    -0.00028579304235884
 844    0.0013401430918703
 845    0.0037515161612436
 846    -0.00029454221323049
 847    0.00023728328006548
 848    -0.00029290614491442
 849    0.00021365646022418
 850    -0.00022097706689824
 851    0.00035507203938779
 852    -2.4474017198552e-05
 853    1.7814335647711e-06
 854    2.8543452721145e-05
 855    1.3382888542335e-05
 856    -3.1881630569893e-06
 857    0.00076132991391273
 858    0.0024029248978179
 859    0.0028742266970562
 860    0.0015692985155275
 861    -0.00046033020783234
 862    0.00095815296797545
 863    -0.0025759184938226
 864     0.001403443179864
 865    -0.0024687284927925
 866    -2.9149919526894e-05
 867    -3.865043598629e-06
 868    6.5737561936685e-05
 869    1.2094793307241e-05
 870    7.4901886699212e-05
 871    0.0027758482083469
 872    -0.0029487965982318
 873    -0.0004609052422148
 874    0.00018672148349945
 875    -0.00046436793301785
 876    0.0022985577087176
 877    -0.0020075252748132
 878    -0.00042077183022844
 879    0.00031459935693918
 880    -0.00025453258947398
 881    0.0018534448669785
 882    -0.00038760172282489
 883    -8.5697122512471e-05
 884    0.00029990958572695
 885    -0.00035091361374332
 886    0.0003301864056322
 887    -0.0017223709378228
 888    -0.00013737921850921
 889    -1.7847227899303e-06
 890    -2.076810403179e-07
 891    0.00021632264825548
 892    -0.0011975605713111
 893    -1.000282783774e-05
 894    0.00013164043921553
 895    -1.3375103699004e-05
 896    0.00017006029612744
 897    -0.0012385193695842
 898    7.8840253061904e-06
 899    -3.8693612956921e-05
 900    -0.000139128851394
 901    -0.0029978703816687
 902    0.0076605754233612
 903     0.020876521698564
 904    0.0060186932986306
 905    -0.0039879066510321
 906    0.0022743133322285
 907    0.0028537076419373
 908    0.0050488617173601
 909     0.010862295750276
 910    -0.00054276127739373
 911    -0.00055811027181373
 912    0.00032485970992093
 913    -0.00019871068764875
 914    -0.00079999821830853
 915    0.00098754332958686
 916    0.0047008884735427
 917    -0.0079087102680074
 918    -0.0035654897854498
 919    -0.00056346810904117
 920    -0.0022011569397542
 921    -0.00075970223800386
 922    -0.010002974417091
 923    0.0022232288679707
 924    0.00031217919139231
 925    0.00038406943732449
 926    -9.7410296294761e-05
 927    -6.9661636813615e-05
 928    0.00049242064384758
 929    0.0051560015488014
 930     0.004683361185702
 931    0.00090063465445084
 932    -0.000653895392851
 933    -3.5581681631246e-05
 934    -0.0033286796976227
 935    -0.0053543913217223
 936    -0.00078284894196064
 937    -0.00015802441550654
 938    -0.00014736882593203
 939    0.0095786127483482
 940    -0.0063992607674828
 941    0.0012006730362084
 942    -0.0011469193598254
 943    0.00014878763860922
 944    0.0016428246978637
 945    0.00073094709934138
 946    0.00070628491612799
 947    -0.00010180439039458
 948    0.00025305617258282
 949     0.016685102135196
 950    -0.010282956048092
 951    0.00029029819909673
 952    -0.0006215428142794
 953    0.0022211530338044
 954    0.0023883569257071
 955    -0.015498286726033
 956    4.9507328469428e-05
 957    0.00019829891102188
 958    -0.0016002761850015
 959    0.00075344908915683
 960    -0.0021416446030554
 961    -0.0051796266912827
 962    0.0001205556809037
 963    0.0066580963671694
 964    -0.0063966200588416
 965    0.0036268222977395
 966    0.0041152204581179
 967    -0.0085564725486777
 968    0.00044394233398788
 969    -0.00020528401068603
 970    -0.00027020876181826
 971    0.00049853764934875
 972    -0.00020211642994185
 973    0.00045255391118231
 974    0.00068286850935659
 975    0.0057177169956608
 976    -0.0010184637809078
 977    0.00081199866096139
 978    -0.00062578964703021
 979    0.0017647618703528
 980    0.00061274728148327
 981    0.00068687683621281
 982    5.7436500512432e-05
 983    -0.00018604918309349
 984    6.9647177461512e-05
 985    7.1619076890354e-05
 986    0.00011886870789199
 987    -5.3284811663979e-05
 988    -0.00014992025328164
 989    -0.00022138154446328
 990    -0.00017002982562535
 991    -0.0002361857677185
 992    0.0010942913742906
 993    -0.00070607286906051
 994    0.00015119692673621
 995    3.0029732322901e-05
 996    1.4192999025985e-05
 997    -0.0012131226762842
 998    -0.0031943768398006
 999    4.7198527790792e-06
 1000    0.00036886036335528
 1001    0.00011838382486447
 1002    -0.010283658603948
 1003      0.01242135118468
 1004    -0.00023773992714292
 1005    0.00071156122434176
 1006    0.00078143073030986
 1007    -0.0035308437730636
 1008    0.0068147606365992
 1009    0.00020714598493311
 1010    -0.00027978872405611
 1011    -0.00011643727605456
 1012    0.0051263591868349
 1013    -0.014024792912583
 1014    -0.00017983577886236
 1015    0.00011861193320193
 1016    -0.00040971208454208
 1017    0.00021344454373923
 1018    -0.0010271481804307
 1019    -0.0023288550343988
 1020    -0.00023526151171087
 1021    0.00022384203414967
 1022    -0.0001560119959325
 1023    0.00022438332553172
 1024    -0.00046920482343769
 1025    0.00025340807497074
 1026    1.0244331681271e-05
 1027    1.1708740389481e-05
 1028    -3.7787712273602e-05
 1029    -2.4858469596247e-05
 1030    4.3131423964277e-06
 1031    -0.00056232058674598
 1032    -0.0018818341478151
 1033    -0.0015812749336902
 1034    0.0014463926931945
 1035    -0.00058199077572044
 1036    8.5455998912494e-05
 1037    -0.0022261555639658
 1038    0.0012175981149108
 1039    -0.00046653529641379
 1040    -1.8839742212846e-05
 1041    2.6035068727192e-05
 1042    -2.5737677774736e-05
 1043    -2.2903474349081e-05
 1044    -2.2945538827152e-05
 1045    -0.0019486818444982
 1046    0.0023053202184084
 1047    -0.00034589403376228
 1048    0.00034698880483539
 1049    -0.00021649999067333
 1050    -0.0016728251831908
 1051    0.0016052340844853
 1052    -0.00031800086215101
 1053    0.00020162838516263
 1054    -0.0002157308887229
 1055    -0.0013845650539583
 1056    -0.00091945380763764
 1057    -9.4040329519683e-05
 1058    0.00027754624857111
 1059    -0.00021143720248107
 1060    -0.00021628534002298
 1061    0.0013536721693089
 1062    -0.00011633271562704
 1063    2.0062829519422e-06
 1064    1.1452658112904e-05
 1065    -0.00017319668120179
 1066    0.00078728227958823
 1067    -7.8895781421664e-06
 1068    1.4878584865954e-05
 1069    -0.00010207906489589
 1070    -0.00016644899745107
 1071    0.00087061078454191
 1072    6.5736071253164e-07
 1073    0.00011221256332311
 1074    2.6049961281051e-05
 Sym= A
 Ene=               0
 Spin= Alpha
 Occup=    0.00000
   1     0.001061423944122
   2    0.00041332762702198
   3    -0.0025466875173932
   4     0.007748385359928
   5     0.048078585060878
   6      0.11960446791541
   7       0.1008400013081
   8     0.050594215190253
   9      0.12584001055061
  10      0.10604131606241
  11     -0.15053361651099
  12     -0.37364566607296
  13     -0.31617927885569
  14      -0.2058343419964
  15     -0.52516266206161
  16     -0.43605649163783
  17    -0.010397931434848
  18    -0.0063235054679027
  19    -0.016241389599563
  20    -0.00089470205492865
  21    -0.0078197732369475
  22    0.0076516023352454
  23    0.00033764295877961
  24    0.0016467610057805
  25    0.00092098129888227
  26    0.0013485186705969
  27    -0.018685695161625
  28    -0.041869099526742
  29      0.10327247132347
  30     0.049227095389543
  31      0.01977848683043
  32    -0.012768895490293
  33    -0.0094053706207939
  34      0.02658882129361
  35    -0.016659565348912
  36    -0.012292149888862
  37    -0.076209162539924
  38     0.048965159077471
  39     0.036787557562501
  40    -0.082509811644615
  41     0.046970035280461
  42     0.032185569729929
  43    -0.0026683294697279
  44    -0.0023986732233765
  45    -0.00019976819160795
  46    0.0045325231879547
  47    -0.0024884072575726
  48    -0.003151297521154
  49    -0.0029229792827496
  50    -0.0012320636683263
  51    0.0062069735774902
  52    -0.0035376463531929
  53    -0.040054209369542
  54    -0.081395215049569
  55      0.19806700513066
  56      0.11318891706734
  57    -0.0012628582880469
  58       0.0437250547182
  59    -0.0051993854954196
  60    -0.0012981931059811
  61     0.060792255423534
  62    -0.0051968478880439
  63     0.005633708990419
  64     -0.17223154835259
  65     0.022216723027869
  66    -0.0033435731235567
  67     -0.19170548413573
  68    0.00026294850625176
  69    -0.0055464259926381
  70    -0.0011980081129258
  71    -0.0018693488893367
  72    -0.0090693666404868
  73    0.00058857798588692
  74    -0.0058428402328118
  75    0.0020613594443322
  76    -0.00045322292558709
  77    -0.0088212150092256
  78    -0.001996981815007
  79    -0.037291759370238
  80    -0.075407006315957
  81       0.1859940397702
  82      0.09664611323625
  83    -0.0016875322620425
  84    -0.007976674402449
  85     0.044394661161336
  86    -0.0025664171894698
  87    -0.0093913051070443
  88      0.06083589237998
  89    0.0062505012496671
  90     0.031168112611404
  91     -0.17139523696751
  92    0.0074005627631317
  93      0.01943877839623
  94     -0.18269852974997
  95     0.008772371299738
  96    0.0010339732490991
  97    -0.0018320247467208
  98    0.00034775230813473
  99    -0.00082638152022062
 100     0.012192778793523
 101    -0.0037004244505214
 102    -0.0033846879993641
 103    0.00062206401563516
 104    0.00065641880954726
 105     0.014662019858273
 106     0.027616272236385
 107    -0.063916692367806
 108    -0.044073227187153
 109     0.015054719571127
 110    -0.023412521949232
 111    -0.020134632669809
 112     0.020846073896591
 113    -0.028711706482147
 114    -0.024999554353789
 115    -0.055543392393496
 116     0.085229854492078
 117     0.072762356398195
 118    -0.066663557667319
 119     0.074046030305931
 120     0.067080821304814
 121    0.0012462519882074
 122    0.0043552408999123
 123    -0.00084465231894717
 124    -0.00041489140440255
 125    0.0059558747397071
 126    0.00034395406129741
 127    0.0079241458712407
 128    -0.00055025249067003
 129    -0.0047801117680119
 130    0.0076002355311092
 131     0.037554891223302
 132     0.072954208127586
 133     -0.16983510328472
 134     -0.11761776119782
 135     -0.01490447536317
 136     0.039296624117401
 137    -0.024437674013214
 138     -0.01839360330212
 139     0.054349211315551
 140    -0.031548481163258
 141     0.055277331913317
 142     -0.14848300250076
 143      0.08863061516483
 144     0.046207135668193
 145     -0.17460244250069
 146     0.091414922243131
 147    0.0024812616768181
 148    -0.0021737722195909
 149    0.0058999415406645
 150    0.0040633098730629
 151    0.0047153854894266
 152    0.0032835872155435
 153    0.00078315889593152
 154    0.0095936829147441
 155      0.01064126557368
 156    0.0030228713520072
 157     0.029609263126016
 158     0.057424416937512
 159     -0.13250661064043
 160    -0.093744702977007
 161    -0.012204611121372
 162    -0.023978723816474
 163     0.027537070622527
 164    -0.015117899062701
 165     -0.03064095614902
 166     0.038647657237676
 167     0.044933726829193
 168     0.088110083329101
 169     -0.10574965789711
 170     0.040755780303892
 171     0.088515916303551
 172      -0.1291108476626
 173    -0.0036447001106932
 174    0.0031877323659075
 175    0.0070147515623832
 176    0.00096852513371377
 177    -0.0022293040699506
 178    -0.0073827551151507
 179    0.0045754488708596
 180    0.0082998062415923
 181    0.00051786314526941
 182    0.0011915730964623
 183    -0.029264347459919
 184    -0.0059634849046232
 185     0.046812734368785
 186     0.054130073980524
 187    -0.0065665921518766
 188     0.018073753503688
 189    0.0083763658320568
 190    -0.0069489792947067
 191     0.019077250125366
 192    0.0088000729519565
 193     0.021436423795169
 194    -0.055175934621722
 195    -0.025185390829935
 196      0.02897938758769
 197     -0.08363644507437
 198    -0.037354119732571
 199    -0.0081757965905141
 200    0.00054659647108348
 201    0.0009072898244355
 202     0.015723482161309
 203    0.0002902008242524
 204    0.0036957958690281
 205    -2.277127032542e-06
 206    0.00036682663322672
 207    -0.007090642968448
 208    9.2567770236565e-05
 209    -0.013756625797064
 210    -0.030985788503974
 211     0.076392236166905
 212     0.037057715576433
 213    -0.025035193789263
 214    -0.011595859086912
 215    -0.0077695097622822
 216    -0.033448233747526
 217    -0.015334840442813
 218    -0.010127476040773
 219     0.095732088486433
 220     0.044907369519244
 221     0.029851566349277
 222      0.10415821325768
 223     0.044069862092226
 224     0.028900341991792
 225    -0.0018143302671527
 226    0.0016380511366764
 227    -9.8944602009892e-05
 228    0.0035114786007154
 229    0.0020883309917072
 230    -0.0026672373682992
 231    0.0014818689877398
 232    -0.00082759527740609
 233    0.0040117746952026
 234    0.0020325603012097
 235    -0.0054921985778697
 236     -0.01166650399087
 237     0.025914208426983
 238     0.019437462177974
 239    0.00085305892872881
 240    0.0052150945166517
 241    -0.0019122677451551
 242    0.00096537610633109
 243    0.0072980644677902
 244    -0.002535735967339
 245    -0.0030802507379956
 246    -0.021657326403603
 247    0.0068904203301288
 248    -0.0031375837385551
 249    -0.018441655079822
 250    0.0092676546389806
 251    -0.00045254644391301
 252    2.4049077525544e-05
 253    -0.00029390849939184
 254    0.00014810213794479
 255    0.00026673014364632
 256    -0.00048394021015888
 257    -0.00020161783436798
 258    -0.0013780199388552
 259    -0.0018937607811761
 260    0.00020115145881078
 261    -0.0020439133996922
 262    -0.0043697314083631
 263    0.0089103323826133
 264    0.0070532996593234
 265    0.00063551863126597
 266    -0.002619617620553
 267    0.0013832817159516
 268    0.00080606588551765
 269    -0.0035291538417398
 270     0.002004180821044
 271    -0.0026261647573049
 272    0.0095065066464665
 273    -0.0063686191538587
 274    -0.0016433717331416
 275      0.01236206332199
 276    -0.0013953413399165
 277    -0.00083136768705698
 278    0.00010090981465752
 279    -0.00044994063525125
 280    0.00047873447944115
 281    -0.00011730224022122
 282    0.00085184890187766
 283    0.00053285410851676
 284    -0.0018124315363056
 285    -0.00056992408678434
 286    0.00028589149581471
 287    0.0061851219933361
 288     0.011714085018103
 289    -0.024135974318881
 290    -0.029073430159141
 291    0.00064961345826817
 292    0.0069482363211786
 293    -0.00026753330878632
 294    0.00072001660806423
 295    0.0096263918705236
 296    -0.00031070603163519
 297    -0.0026804956285029
 298    -0.025550907326682
 299    0.00085737930922112
 300    -0.00018980217319203
 301    -0.038249362218235
 302    0.0012931154653436
 303    0.0010740271978911
 304    7.7388157994311e-06
 305    -0.00012379178199846
 306    0.0022624501084602
 307    -0.00011928895999296
 308    0.0005218847732995
 309    -0.0002396186203831
 310    0.00044450540357044
 311    0.00016148382606399
 312    -0.00042194015241902
 313    0.0034368617844616
 314    0.0064066717560048
 315    -0.012380150029901
 316    -0.018607197859668
 317    0.00072093296775906
 318    -0.0017742093511259
 319    0.0040141285008318
 320    0.0010069193065705
 321    -0.0023121975042223
 322    0.0055005137236141
 323    -0.0029184583752503
 324    0.0066668532728344
 325    -0.014367031136066
 326    -0.001886541732304
 327    0.0067989461729832
 328    -0.024027522927556
 329    -0.0019296945971284
 330    -0.00018313984750043
 331    0.00037350453477972
 332    0.00021488130414415
 333    5.2400031484871e-05
 334    0.00024974589605242
 335    -0.00037368904326169
 336    0.0010478498306758
 337    -0.00042582555764713
 338    -0.00031717980491482
 339     0.012064809654426
 340    0.0024258356190302
 341    -0.018936891281749
 342    -0.013545792280368
 343    -0.050567195511694
 344     0.088252659831822
 345     0.067109415524785
 346    -0.053327887639272
 347     0.092741373785455
 348     0.070457342863974
 349      0.15930771589031
 350     -0.27692466258018
 351     -0.20957549933495
 352       0.2202168362503
 353     -0.38293268959735
 354     -0.29654660494772
 355    0.0066675240597816
 356    0.0061707706118009
 357    -0.0098512644051371
 358    0.0037613043825285
 359    0.0074920727904173
 360    -0.0045321190097416
 361    -0.0015518398096925
 362    0.00057798165293712
 363    -0.0040752187651511
 364    -0.0013093481068321
 365     0.012406173311214
 366     0.023742090178566
 367    -0.053396240399363
 368    -0.039684397532362
 369    -0.012258644083148
 370    -0.017644332764433
 371    -0.014304819314583
 372    -0.017157212703125
 373    -0.022048720819866
 374    -0.017490956522315
 375     0.045015315342721
 376      0.06338631371686
 377     0.051625271956067
 378     0.055056140346519
 379     0.060286156156086
 380     0.045300136721526
 381    -0.00035026343367484
 382    -0.003312832082932
 383    -0.0012562235388734
 384    -0.00044636410905073
 385    -0.0035311199766501
 386    0.0033122839263187
 387    -0.0045793003358057
 388    -0.00028258745447132
 389    -0.0017228662797806
 390    -0.007185521246049
 391    -0.032323137491137
 392    -0.065459361725243
 393      0.15965977217225
 394     0.088504771008349
 395    0.0017932312245318
 396     0.038424010696601
 397    -0.0029888032285904
 398     0.002606136733857
 399     0.052649141286984
 400    -0.0032987359616846
 401    -0.0070887251948972
 402     -0.14784385154285
 403     0.011869869824457
 404    -0.0064955201702545
 405      -0.1608395060883
 406    0.0051343618064294
 407    -0.003905376412148
 408    0.00040743456003494
 409    -0.00060812372077893
 410    -0.006681354552024
 411    -0.0010006924843891
 412    -0.005361565553576
 413    -0.00011902901798104
 414    -0.0011968891863624
 415    -0.0087161879700973
 416    0.0037916797977097
 417    -0.023487173116256
 418    -0.047784405101428
 419      0.11627898135329
 420     0.067443342291716
 421    0.0027054861035308
 422    -0.0067114112548934
 423      0.02580787990862
 424    0.0033540403311454
 425    -0.0077957087091263
 426     0.035943359619064
 427    -0.011119141583822
 428     0.026987126110569
 429     -0.10176908809593
 430    -0.005145189773097
 431     0.014714048983414
 432      -0.1150877273199
 433    0.0067502097575288
 434    0.00010176914232528
 435    -0.0022010230074027
 436    7.0614010727167e-05
 437    0.00080030936476702
 438    0.0062408021788881
 439    0.0023625782812637
 440    -0.0020673737164122
 441    0.00055641107504501
 442    -0.00098352104653657
 443     0.026466444939974
 444     0.052034764655965
 445     -0.12050177955262
 446    -0.083608788371739
 447      0.01128397178656
 448      0.02598451522011
 449     -0.01487970852867
 450     0.014219578684187
 451     0.036771301991811
 452    -0.018402658966582
 453    -0.041660165825979
 454     -0.10059044868128
 455     0.054777227842986
 456    -0.038506892871335
 457     -0.12130282018532
 458     0.049589075470276
 459    0.0018060369701213
 460    0.0019606510039341
 461    0.0042732859567193
 462    0.0036181183530116
 463    -0.0030943791972878
 464    0.0034241387958053
 465    -0.0020058150807843
 466    0.0050728460109007
 467    0.0062643538543262
 468    -0.0039919759804008
 469     0.020539629024061
 470     0.039951754260692
 471    -0.092710068908755
 472    -0.064087285710675
 473     0.011784000646211
 474    -0.018230980268072
 475     0.020311248745078
 476     0.014309782161878
 477    -0.023360445862593
 478      0.02830713126688
 479    -0.043744799962722
 480     0.066757152792163
 481    -0.077188956920251
 482    -0.034884917746752
 483     0.064620898280057
 484    -0.090769853814121
 485    -0.0016011576672315
 486    -0.0032780747242321
 487     0.004352824626434
 488    -0.00017161880380493
 489    0.0017568069916238
 490    -0.006495868969672
 491    -0.0033529065789254
 492    0.0073727883790535
 493    0.0014936214691466
 494    -0.00094138131030216
 495    0.0027091309926181
 496    -0.0040947298905854
 497    -0.043983625298095
 498    0.0038293610938737
 499    -0.0024887694989882
 500    -0.0035192498966997
 501     0.010266536911485
 502    -0.011987016201972
 503    -0.013071188505441
 504    0.00010335718546167
 505    -0.00019126915780956
 506    0.00060008480485737
 507    -0.00019622503771697
 508    -0.00030005087023227
 509    -0.0013039413927552
 510    -0.006451601458867
 511     0.011796267611238
 512    -0.0030550648203705
 513    0.00077576378756468
 514    0.0013718416036424
 515    -0.011564420346261
 516    0.0015066369677918
 517    -0.00026419999858656
 518    -5.0889313861941e-05
 519    0.00021011789037636
 520    -7.9459779271885e-05
 521    6.3089107636733e-05
 522    0.00028103915998668
 523    -0.00053674159137579
 524    0.0056407329737239
 525    -0.00011540787060619
 526    -0.00038099016045846
 527    0.00040702929967296
 528    -0.013381609092798
 529    -0.0095998515339287
 530    0.00099212634058505
 531    4.9822404507569e-05
 532    -0.00014065742620242
 533    -0.00094406420647308
 534    0.0096665769679518
 535    -0.00029055054529559
 536    0.00049692048140144
 537    -0.00050201779431765
 538    -0.0057365476133798
 539      0.02206773649442
 540    0.00053081545720745
 541    -0.00026776584334638
 542    0.00031286169699517
 543    -0.0068393691126816
 544     0.023771285801305
 545    0.00064800533148718
 546    0.00022833910938652
 547    -0.00032457386939447
 548    -0.00091097287231363
 549    -0.0040420899179418
 550    0.00025993445263459
 551    -0.00045800737984067
 552    -0.00046252342006028
 553    0.00093847779916817
 554    -0.0023172901849062
 555    -0.0056917768569641
 556    0.0021840173139984
 557    0.00060940023198441
 558    0.00074326420346739
 559    -0.0007680796985666
 560    0.0042891675938085
 561    -0.0004176998164408
 562    5.4999454212578e-05
 563    8.1440075832711e-05
 564    9.1531959174155e-05
 565    4.4431980808628e-06
 566    -3.1192369652495e-05
 567    0.00048011112353473
 568    0.0021727033484848
 569    -0.0028657869231348
 570    -0.0013957302860531
 571    -0.0047436469706448
 572    -0.0047624854317059
 573    0.0026674358599497
 574    0.0041795728558314
 575      0.01167496070388
 576    -7.8546240066719e-05
 577    -3.4583602309092e-05
 578    2.7728115038918e-05
 579    -4.5552730280517e-05
 580    0.00034056003515477
 581     0.002991543754807
 582     0.017310257277842
 583    -0.00026097661437896
 584    -0.00010388061998463
 585    0.00015492455271044
 586    0.00075693937486405
 587    -0.010932427647321
 588    -6.5502350692763e-05
 589    -0.00042559584540975
 590    0.00022103017548853
 591    0.0054168957690937
 592    -0.009532199715262
 593    -4.6270893986718e-05
 594    3.8483988823539e-05
 595    -0.00023617212875408
 596    -0.0018788920146249
 597    0.0071704435406521
 598    5.8004026852745e-05
 599    0.00011908514932308
 600    -0.00023061240196385
 601    0.00069254310360261
 602    0.0025411215460267
 603    3.4485031901927e-05
 604    7.5670043741822e-06
 605    -0.00014583101523934
 606    -0.00020833293514046
 607    0.0026892644587751
 608    -2.4248220483903e-05
 609    -0.0003901609635114
 610    0.00022911850553787
 611    0.0010017217805561
 612    -0.0025438333247063
 613    -0.011225504594401
 614    -0.0011875577905717
 615    -0.000903504952007
 616    -0.00038742827290869
 617    -0.0010017324928624
 618    0.0024358428771557
 619    0.0032562320692936
 620    7.027006281842e-05
 621    5.6876247032829e-05
 622    0.00030354480659116
 623    -0.0003093800636118
 624    -0.00014078296589152
 625    -0.0012166270839871
 626    -0.0034835718393211
 627    -0.0053051460001551
 628    0.0036964536724317
 629    -0.00053954719999458
 630    0.0020574571871027
 631    -0.0042900631735223
 632    -0.0023284833418535
 633    -0.00082181730185191
 634    0.00012925054926834
 635    -0.00039417208963177
 636    -5.4567323425543e-05
 637    0.00013466658748537
 638    0.00022542873219425
 639    -0.0029163488893909
 640    0.0015924766658315
 641    0.00032060740044104
 642    -0.00028674135122266
 643    9.962975157667e-07
 644    -0.0079654037382522
 645    0.0033208844674985
 646    -0.0012387529154873
 647    -0.00071789925769087
 648    -0.00026924838560952
 649    -0.0027933581738829
 650    4.5319301201074e-05
 651    0.00013400640006567
 652    -0.00057941540189424
 653    -0.00095968762359123
 654    -0.00015546269051096
 655    0.0064136330342544
 656    2.3416970766399e-05
 657    0.00022226915209835
 658    -0.00018832828598603
 659    -0.003585809075494
 660    0.0086938698050488
 661    -0.00032575726477607
 662    -0.00026096061136506
 663    -0.00017111191255147
 664    -0.00072673526667193
 665    0.0033244454991556
 666    0.00010435726822879
 667    -0.00015388824711112
 668    -0.00013502170725574
 669    0.00067093777918658
 670    -0.0016025595427738
 671    -0.0032021124988902
 672    -0.0013250524841262
 673    0.00048090911744596
 674    0.00064991810634071
 675    -0.00045097991255322
 676    0.0015928928459331
 677    -0.00040406138667253
 678    6.4661604954544e-05
 679    -9.4591358268245e-05
 680    2.3704331639053e-05
 681    6.9385108581808e-05
 682    1.3940905928946e-05
 683    0.00036837625279594
 684    0.0017381742628334
 685    -0.0027846198865271
 686    0.0012418393494667
 687    -0.0030939603517536
 688    -0.0030710953343531
 689    -0.0041179208679335
 690    0.0028346857071348
 691    0.0086168752364984
 692    -7.8031623740622e-05
 693    7.1343477920355e-05
 694    -1.9865070408796e-05
 695    -9.4524077703601e-05
 696    -0.00020776368473408
 697    0.0023946796982793
 698      0.01534854281213
 699    -2.4715234937606e-05
 700    2.1444202726835e-05
 701    0.00010807040944462
 702    0.0031444237582792
 703    -0.0079104151808713
 704    0.00022402755224656
 705    0.00012328342448583
 706    -0.00013862620122957
 707    0.00036748278598763
 708    -0.0058585948645482
 709    3.2755952251478e-06
 710    -0.00029170725651327
 711    0.00012278515676175
 712    -0.00051251471395616
 713    3.8051623148491e-05
 714    -1.0623639015162e-05
 715    -0.0003663285933828
 716    9.2157128767072e-05
 717    0.00041856581121104
 718    0.0018011465483785
 719    -2.6413184480441e-06
 720    9.9366133974878e-05
 721    -5.8769116574035e-05
 722    -0.0014506562242749
 723    0.0037667275102568
 724    2.4933269125181e-05
 725    9.4371204675381e-05
 726    -0.00017352020029471
 727    0.00033047662768967
 728    -0.00050828086216872
 729    -0.00045239500800333
 730    -0.0014727581019769
 731    0.00020350291441518
 732    0.00054691026543868
 733    7.1157147305968e-05
 734    0.0014490981738543
 735    0.0021939252949233
 736    -4.5805623907834e-05
 737    3.2063858570843e-05
 738    0.00010031119187328
 739    -3.0302721753603e-05
 740    -6.7724179153198e-05
 741    0.00085382242788021
 742    0.0033892488582779
 743    -0.0017132075954436
 744    0.00092857501690682
 745    -0.003720140532213
 746    -0.0039839450492359
 747    -0.0026550830531629
 748    0.0098927948927999
 749    0.0047205382072297
 750    -1.3042497406916e-05
 751    -0.00024925604880536
 752    -3.3302571191374e-05
 753    -1.823748312332e-05
 754    -8.37345922779e-05
 755    0.0055970833230131
 756     0.015505491790457
 757    0.0004955558404717
 758    -0.00027248241973479
 759    0.00032703310347636
 760    0.0014141621661009
 761    -0.010717950403299
 762    -1.3442385586484e-05
 763    0.0003082170194721
 764    -0.0004734985239632
 765    0.0043363658356058
 766    -0.0085325301580748
 767    9.829949255479e-05
 768    -0.00032394846112294
 769    6.5387980146589e-05
 770    -0.00094361896085344
 771    0.0028532303797768
 772    -1.1458329588754e-05
 773    -0.00026980659158256
 774    1.9966640214714e-05
 775    3.8592690239212e-05
 776    -4.4737469236013e-05
 777    -5.8033417393033e-05
 778    -4.8156841209354e-05
 779    5.6585641994392e-05
 780    0.0011233994657879
 781    0.00068412204628172
 782    5.7292411535392e-05
 783    0.00010954928947918
 784    -0.00020894586194717
 785    -0.0013248656367738
 786    0.0025268280356846
 787     0.016679568674521
 788    -0.00014594225365445
 789    -0.0020813014286616
 790    -0.0030049173489969
 791    0.0004049474525967
 792    -0.0073581146420959
 793    -0.0027990217259444
 794    0.00017560286128878
 795    -0.00014417681051777
 796    -0.00030527684137358
 797    -0.00017397436165186
 798    3.6246564870911e-05
 799    0.0016209298084587
 800    0.0050839988597176
 801    0.0035694634220971
 802    -0.0032872238795358
 803    6.9008830755014e-05
 804    0.0012196395170216
 805    -0.00062262022150847
 806    0.0081502273360011
 807    -0.0014847599293715
 808    -0.00023916409573557
 809    4.0479421219935e-05
 810    -0.00013060720248889
 811    -0.00010134204425865
 812    8.5407349285872e-05
 813    0.0091963933774139
 814    0.0010191788410768
 815    -3.8605754695846e-05
 816    -0.00050992086912934
 817    -0.0011806539135394
 818    0.0008839326088423
 819    -0.012473836302689
 820    0.00023024976535486
 821    0.00064813941544726
 822    0.00034679781406097
 823    0.0014454834035484
 824    -0.0019319955144306
 825    0.00025391371685456
 826    -0.00013609784653335
 827    -3.3116452586648e-05
 828    0.0048110100032307
 829    -0.010903366707602
 830    9.4594269048794e-05
 831    5.5601056399929e-05
 832    0.00010455395511587
 833    0.00057197314620116
 834    0.0020975137789123
 835    0.00041966978468228
 836    -0.00011835088081036
 837    -0.00016862591241972
 838    0.0028228019800294
 839    -0.013274420801154
 840    -0.00059047800474108
 841    -9.3226656782951e-05
 842    0.00018881557445987
 843    0.00016128756904234
 844    -0.00090202214532787
 845     -0.00451515933221
 846    -4.4743566256866e-05
 847    0.00012456259522641
 848    0.00046930266392592
 849    3.716206247731e-05
 850    -0.0013743116946137
 851    -4.4824231384169e-05
 852    -2.1545119954762e-06
 853    -4.2734881386935e-05
 854    -6.2227304299715e-06
 855    2.7573118696341e-06
 856    3.755995625368e-05
 857    -0.00077017988435468
 858    -0.0020946628652018
 859    -0.0040056363888451
 860    -0.00031769418469772
 861    -0.0019455702844299
 862    -0.0040563261101032
 863    0.0014789371802757
 864    0.0019293018375379
 865    0.0083437563148719
 866    -0.00011869101209748
 867    -6.4737308925756e-05
 868    -8.2327187694605e-05
 869    -8.9763470812737e-05
 870    -0.00043111267309315
 871    -0.0040329722624974
 872    0.0090936705623031
 873    0.00031460325710143
 874    -0.00016069390974585
 875    0.00097627145038998
 876    6.0429576110988e-06
 877    -0.0071140683541077
 878    0.00022121057764511
 879    0.00013997644642739
 880    -0.00036812283247281
 881    -0.0031482340711483
 882    0.0056558912062835
 883    -1.3628468302334e-05
 884    -0.00011495870487256
 885    0.00088189311705609
 886    3.7933091034462e-05
 887    0.00052229661508809
 888    5.3708103289568e-05
 889    2.0185808487892e-05
 890    9.182729883553e-05
 891    0.00020910597313471
 892    0.0010518259821111
 893    3.6043783047924e-06
 894    -3.6375059106496e-05
 895    5.8610745355985e-05
 896    -0.00067434818458925
 897    0.0013616460571969
 898    -5.6685057818646e-05
 899    0.00014469579521122
 900    9.5623720122824e-05
 901    0.00051858912402618
 902    -0.0010443798697928
 903    -0.0022153951099027
 904    0.0021502942959482
 905    0.00014838616713602
 906    0.00056798059736172
 907    -0.00040278130075654
 908    0.0015978614397937
 909    0.0035739765542437
 910    -0.0001551838631833
 911    -7.2771390491947e-05
 912    0.00011832942425528
 913    -2.6349022495794e-06
 914    6.1205619545086e-05
 915    0.00091830459561547
 916    0.0031730397195988
 917    0.0010337684281923
 918    -0.00082509542786357
 919    -0.0039743315590575
 920    -0.0047262037622143
 921    0.0035262173786819
 922    0.0097133045816188
 923     0.006234254718608
 924    0.00016301327102309
 925    0.00048508244163319
 926    -2.0677334131852e-05
 927    1.7966178397864e-05
 928    9.3686389582208e-05
 929    0.0017231099606421
 930    -0.010141651752431
 931    5.5977267691052e-05
 932    0.00025926607787928
 933    -0.00062147463793584
 934    0.0054067533412855
 935     0.014759899058905
 936    -0.00061534299546633
 937    -0.00012329907936733
 938    0.00012474467215838
 939    0.0058090314861437
 940    -0.013842445288408
 941    0.00019197126027963
 942    -0.00042143935295201
 943    0.00044944634573363
 944    -0.0011884311078806
 945    0.0045263197470636
 946    7.7316232715053e-05
 947    -0.00031672598941161
 948    0.00010531277598385
 949    0.0014307759792066
 950    0.0020715854264445
 951    -7.3031586009783e-05
 952    0.00017103528712474
 953    -0.00021617060118399
 954    0.00030741104295543
 955    0.00043620646210994
 956    8.2055771057607e-05
 957    -0.00010294877478901
 958    -1.6468840712462e-05
 959    -0.0013483234840821
 960    0.0031877540634698
 961     0.015097143288046
 962    0.00095917859495476
 963    -0.0033743209626802
 964    -0.0031179916396462
 965    0.0049269460435533
 966    -0.0014134727293404
 967    -0.0061261322819077
 968    0.00020544432350083
 969    0.0002234002233986
 970    -0.00033830546380591
 971    -0.00020507072655045
 972    0.00029310900352495
 973    0.0024698103489693
 974     0.007824112418302
 975    0.0049317143687377
 976    0.0046226553217838
 977    0.0012450958660178
 978    0.0017707251329063
 979    0.0017338558901892
 980    -0.0019658168411157
 981     0.010897511751919
 982    0.00030083676449742
 983    -0.00035606444890994
 984    -9.4973062999322e-05
 985    0.00015576391861539
 986    1.9798281291509e-05
 987     0.013451950589706
 988    0.0062015046017723
 989    -0.00025698295229601
 990    -0.0014020321459554
 991    -5.561749089075e-05
 992    0.00083448812244988
 993    -0.015533111050362
 994    -0.00060950456714697
 995    0.00040430809516441
 996    0.00068738064520187
 997    0.0031742089565114
 998    -0.0045985273795881
 999    -0.00025651239726013
 1000    -7.6750342626013e-05
 1001    -0.00019190796825092
 1002    0.0056682154716497
 1003     -0.01004931151838
 1004    -7.6937911148767e-06
 1005    0.00026081566036608
 1006    -6.0360957736102e-05
 1007    -0.00046092696543046
 1008    0.00016055606078713
 1009    -0.0003759877257961
 1010    -0.00013469978946285
 1011    0.00015331398570437
 1012    0.0046827702380228
 1013    -0.015456257564848
 1014    0.00053572385156447
 1015    -8.5305437787289e-05
 1016    -0.00032158036924494
 1017    -0.00010585122523762
 1018    0.00019521031429951
 1019    -0.00036892017570411
 1020    0.00036206500073799
 1021    0.00017663731456788
 1022    0.00052671254364368
 1023    0.00034808937405284
 1024    -0.00022494258830736
 1025    -0.0012357815916674
 1026    -3.5601533343012e-06
 1027    -5.0085611067793e-05
 1028    -3.3164571826386e-05
 1029    -7.532169722905e-06
 1030    3.3873415719973e-05
 1031    -0.00037600418101889
 1032    -0.00084583563869536
 1033    -0.0013442997280318
 1034    -0.0014083957401965
 1035    -0.0047857209068119
 1036    -0.0037613717561734
 1037     0.002903056316244
 1038    0.0085029012099083
 1039    0.0061334646584982
 1040    0.00017233270187089
 1041    0.00050981394785037
 1042    4.9561491856373e-05
 1043    0.00021519571050318
 1044    0.00013086096621635
 1045    -0.0018265676408725
 1046    0.0090230017491276
 1047    6.2617283868885e-05
 1048    0.00082929158585061
 1049    -0.00023772949832236
 1050    0.0032858931067278
 1051    -0.016717858196827
 1052    0.00027193580433759
 1053    -0.00063116462861016
 1054    0.00069812954627309
 1055    -0.0014434236806946
 1056    0.0092693282144158
 1057    1.6458523163769e-05
 1058    0.00077311033796609
 1059    0.00035258551978674
 1060    0.00018228725419473
 1061    -0.00081151641772303
 1062    6.2221227649173e-05
 1063    0.00011758224466841
 1064    1.8332401599438e-05
 1065    0.00052085041468606
 1066    -0.00029080308127765
 1067    -4.3827345623573e-05
 1068    6.836441128318e-05
 1069    8.0805734602056e-05
 1070    -0.00060108354949656
 1071    0.00072284555164166
 1072    8.0882418616447e-05
 1073    1.6742244151115e-05
 1074    0.00019395583410693
 Sym= A
 Ene=               0
 Spin= Alpha
 Occup=    0.00000
   1     0.022732027530257
   2    0.0042098569481135
   3    -0.034796118046315
   4    -0.031133589560503
   5     -0.04699537205483
   6      0.10080616656085
   7      0.07174369364771
   8    -0.049819246569029
   9      0.10629234190843
  10     0.075550030595897
  11      0.14594045007859
  12     -0.31689261858908
  13     -0.22360446370674
  14       0.2106097549668
  15     -0.44396186073693
  16     -0.32018463204218
  17    0.00081363546019948
  18    -0.0014466604759482
  19    -0.012964324944093
  20    -0.017886281711006
  21    -0.0035847976746743
  22    0.0016303006765181
  23    0.00071188304366313
  24    0.0010500141324069
  25    0.0090304654134702
  26    0.00068573025837092
  27     0.023129193262262
  28     0.050564658495577
  29     -0.11865223051237
  30    -0.076201280186244
  31    0.0040122531197343
  32    -0.012589299132499
  33      -0.0110974270875
  34    0.0051135714331376
  35    -0.016181244384314
  36    -0.014211991947719
  37    -0.016839055419488
  38     0.048332356658285
  39     0.042217352677721
  40    -0.011943842705463
  41     0.045548761419055
  42     0.040258699838386
  43    0.0024557984454715
  44    -0.0017892496092881
  45    0.00012864715846592
  46    -0.0043175443584377
  47    -0.0031326056697052
  48    0.0033338107939948
  49    -0.0026739591644647
  50    -0.001710087841854
  51    -0.0055701510824839
  52    -0.0046568201904898
  53    -0.032577615695441
  54    -0.065652327014629
  55      0.15794344968967
  56     0.096335239774942
  57     0.009756300569238
  58     0.034884159855585
  59    -0.0036438176183378
  60     0.012018574908277
  61     0.048650187113617
  62    -0.0034256873480691
  63    -0.035870714178257
  64     -0.13629898911642
  65     0.015660899785406
  66    -0.036470534455807
  67     -0.15912971462183
  68    -0.0023408760948725
  69    -0.004615153945453
  70    -0.00099244223954793
  71    -0.0011586050346613
  72    -0.0076260075183596
  73    0.0035455891760946
  74    -0.0045797412286672
  75    0.0028510230481227
  76    -0.00019568338249616
  77    -0.0059352147640189
  78    0.0025751177597068
  79    -0.026571250424978
  80    -0.052595137706102
  81      0.12931529760796
  82     0.071936709132407
  83     0.010591680713311
  84    -0.0077782687608258
  85     0.029982676171903
  86      0.01265662175601
  87    -0.0092414173650122
  88     0.041390595322801
  89    -0.039243919868495
  90     0.030527066825857
  91     -0.11538466633295
  92    -0.031742206129144
  93     0.018690057469425
  94     -0.13091908590309
  95    0.0062076185662502
  96    0.0038726036579811
  97    -0.0017900222448996
  98    0.0006268951802016
  99    -0.00031360704255653
 100    0.0083930315259255
 101    0.0014252511057908
 102    -0.0032542245716952
 103    0.00030517758652953
 104    0.00094942347827478
 105    -0.020784419557939
 106    -0.042839411965987
 107      0.10335289375645
 108     0.061586934843102
 109    -0.027146004550152
 110    -0.015803136981475
 111    -0.010824117066988
 112    -0.037095107229147
 113    -0.019423645702036
 114    -0.012845745795094
 115      0.10390699650812
 116     0.057217042440435
 117     0.039869290441771
 118      0.11191161608163
 119     0.052049200772645
 120     0.029485026962627
 121    -0.0022564763493912
 122     0.003121350090601
 123    2.595695969888e-05
 124    0.0051222904175577
 125    0.0032448034816002
 126    -0.0047454344942971
 127    0.0021671743722917
 128    -0.0022298081019092
 129    0.0055862931097813
 130     0.007058070250935
 131     0.033425920083025
 132     0.067391251046411
 133     -0.15961441437489
 134    -0.099929467859866
 135    0.0019706564638967
 136     0.037761507582604
 137    -0.019327007964276
 138    0.0021952249085749
 139     0.051851412282998
 140     -0.02509374077414
 141    -0.0058016839018865
 142     -0.14486188837594
 143     0.070195867406153
 144    -0.0078142816343133
 145     -0.15705875445132
 146     0.073635839702214
 147     0.002207509509673
 148    -0.00098041901513963
 149    0.0046279967617096
 150    0.0046904829328309
 151    0.00060585879617343
 152    0.0036053800220802
 153    0.0008590341981007
 154    0.0078885002145172
 155     0.010313195458577
 156    -0.0029632220231505
 157     0.022439026571313
 158     0.044364098807692
 159     -0.10508471536864
 160    -0.066904337372969
 161    0.0038499247959426
 162    -0.019421456375416
 163     0.021434063193747
 164    0.0045349100584255
 165    -0.024960299269754
 166     0.029897987495216
 167      -0.0137705908409
 168      0.07177666068624
 169     -0.08403090565918
 170    -0.011802298554586
 171     0.072383715360112
 172    -0.094418667398129
 173    -0.0024447441573582
 174    -0.0009374860909915
 175    0.0056452003195979
 176    0.00097233097217595
 177    -0.00053030251039885
 178    -0.0073658616460067
 179    -0.0016384096548908
 180    0.0071720595129647
 181    0.0013823328772396
 182    5.3248327922874e-05
 183     0.010239488987593
 184    0.0020927408778389
 185    -0.016837167570091
 186    -0.018751205783008
 187     0.039629849288014
 188    -0.004223736287201
 189    0.0052988993458227
 190     0.042038612681124
 191    -0.0043705508418611
 192      0.00565167090033
 193     -0.12382104122235
 194     0.013126590142123
 195    -0.016644097589725
 196     -0.18651615708311
 197     0.017694983271627
 198    -0.026711335470073
 199    0.0027803876393709
 200    0.00010138794249972
 201    -3.7283803025253e-05
 202    -0.0057089325484345
 203    0.0012451843139131
 204    -0.0010651497685818
 205    0.00075418754580544
 206    0.00034198904924837
 207    0.0019916535533669
 208     0.001047197591476
 209     -0.01187918084922
 210    -0.026175177847523
 211     0.058771618894144
 212     0.046646337774168
 213     0.020193980653831
 214     0.015680566944231
 215     0.010392897790946
 216     0.026814699512364
 217     0.020441559900199
 218     0.013420183579669
 219    -0.077942962431643
 220     -0.06059298268589
 221     -0.03994357419152
 222    -0.083171804164759
 223    -0.058554315225127
 224    -0.038923560365579
 225    -0.0014492290547897
 226    -0.0027579241716825
 227    9.7974621667009e-06
 228    0.0018219954911699
 229    -0.0038086430475269
 230    -0.0012623622892952
 231    -0.0031058256821413
 232    0.0012830719837117
 233    0.0034248465224819
 234    -0.0046995481387531
 235    0.0015942512530577
 236    0.0034244042286554
 237    -0.0080102711359375
 238    -0.0041196548720298
 239    -0.0055780671508395
 240     -0.00164739506295
 241    -0.00053496235543638
 242    -0.0071613631465024
 243    -0.0023139842157678
 244    -0.00072075983718287
 245     0.020861660020997
 246    0.0067955141021194
 247    0.0018662438137592
 248     0.018961336988149
 249    0.0055377051722079
 250    0.0027622243875818
 251    0.00017213945991259
 252    0.00022356059074031
 253    -0.00017968749376918
 254    -0.00012610032837727
 255    -0.0018267557659256
 256    0.00043208746710574
 257    1.5013813094091e-06
 258    -0.00016336584503108
 259    0.00077011133327588
 260    -0.0022368130313882
 261    -0.0018318302300707
 262    -0.0038952210261947
 263    0.0093054374108833
 264    0.0072734281360135
 265    -0.0052558592362667
 266    0.00019016927275279
 267     0.002396415485947
 268    -0.0066118401245156
 269    0.00029985023638593
 270    0.0033577144851329
 271     0.019959712279652
 272    -0.00054419462319905
 273    -0.0091599548943205
 274     0.016193310221349
 275    -0.0015928976775392
 276    -0.013148871079643
 277     0.001007411149197
 278    -0.0015775106112883
 279    -3.6667724644372e-05
 280    -0.00028831187805323
 281    0.00023461137432239
 282    0.0003613343208639
 283    -0.0022533995397993
 284    0.00012263666286449
 285    0.00038201342174816
 286    -6.0095373385915e-05
 287    -0.0014211646138451
 288    -0.0025094100220682
 289    0.0065935088126357
 290     0.003435696933546
 291    -0.0066213997448485
 292    -0.0015644133146231
 293    -0.00056585975015929
 294    -0.0073288391314577
 295    -0.0022146595473863
 296    -0.00090174576927204
 297     0.023934502831456
 298    0.0057191227922826
 299    0.0020594723543281
 300     0.016634603604973
 301     0.008868648083364
 302    0.0045511884263677
 303    -0.00024309944056032
 304    0.00038011256188976
 305    0.00026468813911375
 306    -0.00063585183599635
 307    0.0011838855033934
 308    -3.8243637134944e-06
 309    -0.00059994085772362
 310    0.00032652180184606
 311    -0.00016717261565305
 312    0.0025614736207525
 313    0.0012682736364965
 314    0.0028645615878771
 315    -0.0060495871906421
 316    -0.0053857194890357
 317    -0.0064585040901957
 318    0.00068458518363845
 319    0.0015626858605739
 320    -0.0076171729700186
 321    0.00083080166516891
 322    0.0021236981112753
 323     0.023490430316447
 324    -0.0027388423690414
 325    -0.0062738541922174
 326       0.0198229704501
 327    -0.0012155320315447
 328    -0.0051901055395192
 329    2.5759161980493e-05
 330    0.0013441877055469
 331    -0.00014029432150286
 332    -5.5907479262424e-05
 333    0.00027093450456129
 334    -0.00054139246089878
 335    0.0026282522511668
 336    -0.0002994329454952
 337    -7.5164164224919e-05
 338    -0.00035226119313081
 339    -0.028892634704756
 340    -0.0055083471987708
 341     0.046162743869311
 342     0.033404909294063
 343    -0.0029301198695663
 344     -0.12540256388888
 345    -0.085978808070213
 346    -0.0030668866243114
 347      -0.1318514890309
 348    -0.090347725935549
 349    0.0067924526865638
 350      0.39305373105642
 351      0.27008234807262
 352    0.0095904693304954
 353      0.55303682388602
 354      0.37930197732623
 355      -0.0136807495617
 356    -0.0043223254244405
 357     0.013724362305361
 358    0.0039177960679617
 359    -0.0060362584031743
 360    0.0086202052466939
 361    0.0013293232255859
 362    -0.00074425719624865
 363    0.0010052395790077
 364    0.0016306334214878
 365    0.0092741088976676
 366     0.018516668307257
 367    -0.049404346406199
 368    -0.018857617603232
 369    -0.014017421781632
 370     0.019182089886397
 371     0.013073970076753
 372    -0.018753389752584
 373     0.023267355297105
 374     0.015762762333025
 375     0.054264531123107
 376    -0.069650459699635
 377    -0.046896704957157
 378     0.053678583688377
 379    -0.058353860094847
 380    -0.040674586230043
 381    0.0025455580587181
 382     0.002413206879918
 383    0.0011735846053674
 384    -0.0035995822178755
 385    0.0044438845110808
 386    -3.6607432557621e-05
 387    0.0051927048493227
 388    0.0012365428037071
 389    -0.0042214933972467
 390    0.0060945257983105
 391     0.044824090784736
 392     0.089856942942862
 393     -0.21911216166278
 394     -0.12390550955657
 395    0.0075170399122391
 396    -0.051315380298767
 397    0.0034367092771053
 398    0.0086419705224818
 399    -0.070690576519902
 400    0.0036433227739098
 401    -0.027974025932362
 402      0.19733410102826
 403    -0.014018409613947
 404    -0.020904672723513
 405      0.22093532380549
 406    -0.0033727491192124
 407    0.0054821112109734
 408    -0.00013919343846341
 409    0.00061159042945825
 410    0.0086991222642214
 411    0.0040403455160666
 412    0.0069683113978723
 413    0.00037589912815009
 414    0.0013347440111494
 415     0.011929780428349
 416    -0.0016650954716499
 417     0.029260534601169
 418     0.059380759053989
 419     -0.14468982420777
 420    -0.083658426808287
 421    0.0047291874523993
 422      0.01031915936393
 423    -0.031516466520406
 424    0.0055707002244071
 425     0.012080865907502
 426    -0.044074419934145
 427    -0.016855214389628
 428    -0.041052731712488
 429      0.12417957490262
 430    -0.017434665147529
 431    -0.024507148106751
 432      0.14342793085513
 433    -0.008612050760567
 434    0.0021808025627842
 435    0.0031693111344958
 436    -9.4586889471074e-05
 437    -0.0011805303890389
 438    -0.0069757593802408
 439    0.00010291587957228
 440    0.0035859356197777
 441    -0.0012726909889917
 442    0.0021593555916288
 443     -0.03892879144346
 444    -0.077888744297824
 445      0.18172538331286
 446      0.12318317501311
 447    -0.0052687818194495
 448    -0.039460235541077
 449     0.019853504086851
 450    -0.0069130483021691
 451    -0.055638702648278
 452     0.024714835557183
 453     0.019997223899282
 454      0.15427966640627
 455    -0.073529486460461
 456     0.018721019670231
 457      0.18009236660734
 458    -0.067125776542175
 459    -0.0027827214387331
 460    -0.0019819214456226
 461    -0.0058900961598079
 462    -0.0058244303434142
 463    0.0016863847114292
 464    -0.0051489185815064
 465    0.0026790090753895
 466    -0.0068395035169685
 467    -0.010390170494013
 468    0.0012706084391376
 469    -0.026452638661253
 470    -0.053344637234443
 471      0.12409585732474
 472     0.082637575134337
 473    -0.0034636383131555
 474     0.025768664748191
 475    -0.027851031252279
 476    -0.0039843767533485
 477     0.033037368974618
 478    -0.038616816023014
 479     0.013996441651483
 480    -0.094390542670655
 481      0.10709401141244
 482    0.0058871710559401
 483    -0.091846328649775
 484      0.11879098928072
 485    0.0026160333860752
 486      0.00134484242109
 487    -0.0061567207266503
 488    -0.00038131770588584
 489    -0.0019793891344298
 490    0.0087091387219538
 491    -4.7368859591633e-05
 492    -0.010613168891095
 493    -0.0018721319517671
 494    0.0016657924192537
 495    0.0023674607613238
 496    -0.0042366664363358
 497    -0.038127113833903
 498    0.0037565369565197
 499    -0.0019269639884643
 500    -0.0034012057411728
 501     0.010715307076247
 502    -0.011831598170656
 503    -0.013217583626873
 504    -6.1901545961086e-05
 505    -0.00014622182184815
 506    0.00053456746822189
 507    8.5160486022945e-05
 508    -0.00026993821610402
 509    -0.0029751627452675
 510    -0.012881076178882
 511     0.015743873030932
 512    -0.0045894067952544
 513    0.0050736608096267
 514    0.0051812781595453
 515    -0.010041264546322
 516    0.0018417117312362
 517    0.00097358292571482
 518    -7.8765197446797e-05
 519    0.00038890922681368
 520    -4.9589677031659e-05
 521    0.00017245957674204
 522    0.00037840040212361
 523    -0.0032314883298341
 524    0.0062431721698512
 525    -0.00030723927606558
 526    -0.0006770352486795
 527    0.00013538713093793
 528    -0.025844021828027
 529    -0.011892651396055
 530    0.0007325150635116
 531    0.00010616760070782
 532    -0.00010593867527363
 533    -0.002860373234524
 534    0.0073286197457683
 535    -0.00047298047104523
 536    0.00021384080558889
 537    -0.0007260775467991
 538    -0.0054385189875918
 539     0.020104523283565
 540    0.00039654540340626
 541    -0.00020923696472827
 542    0.00037969024340631
 543    -0.0068924795124788
 544     0.022101728467295
 545    0.00045301086797468
 546    0.00024777755891266
 547    -0.0002945059587495
 548    -0.001791210152162
 549    -0.0059620159985868
 550    0.00016202952268911
 551    -0.00055062733251215
 552    -0.00058029568750663
 553    0.0009265803097151
 554    -0.0036280319170434
 555    -0.0041285480646757
 556    0.0022181187064602
 557    -0.00014300927454812
 558    0.0012605545762489
 559    -0.0018374496279906
 560    0.0030349710298057
 561    -0.0029162542403092
 562    -5.9626546994549e-05
 563    -0.00016502022639886
 564    6.3594144816418e-05
 565    -1.7011051869617e-05
 566    1.8689246885968e-05
 567    -0.00085944665940421
 568    -0.0031670175390209
 569    -0.00013352973611883
 570    -0.00062246185808075
 571    -0.001391647953326
 572    -0.0062603548674553
 573    0.0013702616083662
 574    0.00094107803110545
 575    0.0078818373261511
 576    -0.00014239197972748
 577    -0.00039126727331137
 578    -8.3690385933298e-05
 579    2.0690510289134e-06
 580    0.00018704754066142
 581    -0.0062428247214778
 582    0.0090145653738287
 583    0.00022216606183919
 584    -0.00059050101805034
 585    0.00068015471688417
 586    0.00078742713461019
 587    -0.0065709562429838
 588    -1.9328900969059e-05
 589    -0.00028615656517928
 590    -4.1255447092208e-05
 591    0.00011853029008297
 592    -0.0043758942304454
 593    -8.0972804240077e-05
 594    0.00018302319411227
 595    4.5306245087349e-05
 596    -0.002358381828772
 597    0.0058457263926918
 598    0.00019198002182639
 599    3.5338244597186e-05
 600    0.00016646744560603
 601    0.0013126634046178
 602    0.0030261251322327
 603    -7.1502815198979e-05
 604    -0.00019141266902826
 605    -0.0003003408086383
 606    -0.0014830554110156
 607    0.0019376496934958
 608    0.00016019442931165
 609    -0.00019095325088657
 610    0.00042137021914652
 611    -0.0010123722080069
 612    0.0035301850023254
 613     0.011000351429933
 614    0.0020199287168719
 615    0.00057266123634902
 616    0.0003925159667315
 617    0.00020837772908971
 618    -0.005268209321721
 619    -0.0037717744375098
 620    -0.00020978625793072
 621    -0.00029074515621728
 622    -0.00045632744514437
 623    0.0002648045794284
 624    0.00016639944163847
 625    0.0031334564851857
 626     0.010308624624224
 627    0.0045508299427285
 628    -0.0064511519548108
 629    -0.0024608607972901
 630    -0.0053120381709566
 631     0.010851985979106
 632    0.0063279222277988
 633    0.00050220941506129
 634    -0.00027528960868163
 635    0.0010360613038069
 636    3.3314139286337e-05
 637    -0.00059752538215126
 638    -0.00056630124478234
 639    0.0056426020283255
 640    0.0029511484831943
 641    0.00012240528973527
 642    0.00029468281346107
 643    -0.00038499025456095
 644      0.01616497064858
 645    -0.0066301585709627
 646    0.0018722605179705
 647    0.0015417915370439
 648    0.0011735105410904
 649     0.010287618772596
 650    -0.00057247995076192
 651    0.00052017052902844
 652    0.00084323220265365
 653    0.0019274407995036
 654       0.0010046520639
 655    -0.0082102838643946
 656    0.00010859362287762
 657    -0.00033616937308394
 658    0.00022583493332816
 659    0.0059540569175894
 660    -0.010758825954124
 661    0.00036496785996073
 662    0.00043420059267606
 663    0.00027886431287047
 664    0.00067286635524272
 665    -0.0025879307604884
 666    -6.0500207941181e-06
 667    0.00039003400824824
 668    0.00025870838939176
 669    -0.001094713125836
 670    0.0033968070463757
 671     0.006629972320461
 672    0.0020119765721264
 673    4.9347871082271e-05
 674    -0.00098558472009382
 675    -0.0012389252216114
 676    -0.0023432737619202
 677     0.002544384982558
 678    1.8525327837027e-05
 679    2.7870716299942e-05
 680    -1.6608586630053e-05
 681    5.2599436664091e-06
 682    7.1941718693531e-05
 683    0.00056269580771308
 684    0.0015384379216753
 685    0.0033364566128863
 686    -0.0011997856445149
 687    0.0024561883981804
 688    0.0060948829492708
 689    0.0041258882838543
 690    -0.001601622512869
 691    -0.010972126175872
 692    6.5768792175513e-05
 693    -0.00040882958199806
 694    5.6488815668159e-05
 695    4.1883886012094e-05
 696    0.00016329242479002
 697    0.0030115591207601
 698    -0.016521452483152
 699    0.00023924273341459
 700    0.00038399661334829
 701    -0.00049344247934746
 702    -0.00088447515278559
 703    0.0061694451694648
 704    -0.00041186685082138
 705    -0.00010561667553087
 706    -9.5883133244663e-05
 707    -0.00062574648622611
 708    0.0064630338937179
 709    -3.3421394548889e-05
 710    0.00026225563306814
 711    -4.6458128319059e-05
 712    0.0021509639183941
 713    -0.0026932960611569
 714    5.9369179212022e-05
 715    0.00042638259684431
 716    -0.00043582737000285
 717    -0.00087677824183987
 718    -0.0039871119406743
 719    -2.6494041655041e-05
 720    -2.8795864403261e-05
 721    0.00023794327843183
 722    0.0022799281481256
 723    -0.0055566380648079
 724    7.7300284981621e-05
 725    -5.0639445829531e-05
 726    5.2110624495492e-06
 727    -0.00060487022804965
 728     0.001759696508136
 729    0.0023262426045208
 730    0.0020097257177012
 731    -0.00012581512409633
 732    0.00014335721076871
 733    -0.0011441525647619
 734    -0.0003247258922976
 735    -0.0021280102099932
 736    -2.1820717627143e-05
 737    6.2271459679872e-05
 738    -7.1522605909563e-05
 739    -2.7185458681741e-05
 740    1.4534667510835e-05
 741    -0.00028835993619989
 742    -0.0010473338950015
 743    -6.8740285926683e-05
 744    -9.6537789924236e-05
 745    0.0067320195904168
 746    0.0035738669959743
 747    0.0027052082388141
 748    -0.013446017280871
 749    -0.0047482388979989
 750    8.0702995772956e-05
 751    0.00024646394095091
 752    7.527417786886e-05
 753    -4.0676091165831e-06
 754    -0.00025455398245451
 755    -0.0022852464425105
 756     -0.01861803250638
 757    -0.00046671120528282
 758    -9.5128840042272e-05
 759    -0.00016324688926223
 760    -0.0021109085265749
 761     0.014213553571485
 762    -7.1624778532435e-05
 763    -0.00035247844496186
 764    0.00059963012868003
 765    -0.0019005569112836
 766    0.0092573069400517
 767    -0.00016983766708963
 768    0.0001593931781127
 769    -0.00013723301287285
 770     0.001342108598551
 771    -0.0035378535355565
 772    8.0817056870232e-05
 773    0.00016740380770189
 774    4.9731799635459e-05
 775    7.8874912413773e-05
 776    -0.0013170491951373
 777    6.5528976263874e-05
 778    0.00020903847485853
 779    -4.3239459214536e-05
 780    -0.0001383858546158
 781    -0.0026508174341995
 782    -4.8324320200878e-05
 783    -0.00040464914949568
 784    0.00025916103849529
 785    -9.9899678666088e-05
 786    0.0020538199607914
 787    -0.016668137499803
 788    -6.2545592574493e-05
 789    -0.00055617519624963
 790    0.00097524633164291
 791    -0.0048405766698537
 792    0.0041448317340185
 793    -8.218497793863e-05
 794    6.8634050770225e-05
 795    -7.3128208316037e-05
 796    6.4750586053499e-08
 797    -0.00018738783498089
 798    0.00014197986229825
 799    -0.0022707629873012
 800    -0.0068280084623934
 801    -0.0032632703806806
 802    0.0039782396088781
 803    0.00038869741225415
 804    -0.0019652707590724
 805    -0.0019195915045773
 806    -0.0093658680831467
 807    0.00096990481931814
 808    0.00033432276537519
 809    5.1216916706778e-05
 810    0.00013990059077773
 811    0.00012786858028318
 812    5.8772018048503e-05
 813    -0.0099540360527323
 814    -0.0005625616678234
 815    3.6790689938219e-05
 816    0.00063854255743917
 817    0.0014528038554362
 818    -0.0014336163353738
 819     0.017475051991121
 820    -0.0001066595487235
 821    -0.0007917855630809
 822    -0.00055803063845854
 823    -0.00087812040518682
 824    0.0031120014749127
 825    -0.00023928227330916
 826    -3.4179816189898e-05
 827    2.509354400804e-05
 828    -0.00031745938064642
 829     0.010613162944205
 830    4.3690133925132e-05
 831    -0.00026215616886711
 832    -5.3264499904371e-05
 833    -0.00080518209883814
 834    -0.0037748417209861
 835    -0.0001263588650082
 836    0.00026308019899451
 837    0.00031055898937919
 838    0.0020799348793075
 839     0.010968296194519
 840    0.00061109073879007
 841    -0.00014505705160631
 842    -0.00043933686843505
 843    9.6015883320807e-05
 844    -0.00010911780741409
 845    0.00031120626847999
 846    0.00025683827915521
 847    -0.00060478495447627
 848    -0.00017538782588943
 849    -0.00042354660292569
 850    0.00080201141579874
 851    0.00039083087099904
 852    -1.5691132274986e-05
 853    2.0210324621587e-05
 854    3.1274264057789e-05
 855    4.0030699937928e-05
 856    -2.7376706786063e-05
 857    0.00031848230207637
 858    0.00084119703001207
 859    0.00075650831797304
 860    0.0025748605392651
 861    0.0047483996227077
 862    0.0032633638732081
 863    -0.0047183216532136
 864    -0.0073386883375726
 865    -0.0047076631181942
 866    0.0001422298518264
 867    0.00026707439716856
 868    0.00016119998539904
 869    0.00012919435147539
 870    0.00045290530350574
 871      0.00404245843679
 872    -0.014824826474909
 873    -0.00021476979954656
 874    0.00024125564348593
 875    -0.00082227832622876
 876    -0.0023709835054004
 877    0.0079280718014155
 878    1.0206395929681e-05
 879    -0.00076919804122636
 880    0.0005624976548762
 881    0.0011790759461098
 882    0.0058456594197643
 883    7.1337517614375e-05
 884    -0.00023890287043422
 885    -0.00052696385711868
 886    -0.00036014727789665
 887    -0.00038840351858873
 888    -3.8914385662298e-05
 889    -7.7822358527049e-05
 890    -2.4757337904694e-05
 891    -0.00037997395256762
 892    0.0013206661365709
 893    -5.496395706622e-05
 894    -8.8251457092355e-05
 895    -0.00015368591032194
 896    0.0008850948003371
 897    -0.00034919649846649
 898    6.6465898067706e-05
 899    -0.00012458117429803
 900    -1.405862484432e-05
 901    0.00082516807659056
 902    -0.0030622695626377
 903    -0.0024040469506911
 904    0.0013006176479298
 905    0.0010047650845964
 906    -0.00051640196516232
 907    -0.0023413360252338
 908    -0.0013175368481136
 909    0.0013807573517651
 910    0.00010635731245253
 911    6.8216787181698e-05
 912    4.1409566099091e-05
 913    7.1442766176205e-05
 914    -4.7727580878566e-05
 915    -0.00035954806851642
 916    -0.0017065542067624
 917    0.0023773517465433
 918    0.0005161892433529
 919    -0.0055596567169293
 920    -0.0014963583235136
 921    0.00048594365018779
 922    0.0082106335648391
 923    0.0022249127425837
 924    -7.950773464634e-05
 925    0.00016452215419036
 926    -9.4956515732973e-05
 927    3.2509528361735e-05
 928    -0.0003085275998663
 929    0.0013976790956046
 930    -0.0086505122827386
 931    -5.1677390889929e-05
 932    0.00022183554284375
 933    -0.00043329117921357
 934    -0.0016304846755706
 935    0.0065177863355957
 936    -0.00020680626482649
 937    0.00022263370902549
 938    -0.00015353475846691
 939    -0.00045226828960158
 940    -0.003980218616015
 941    -0.00014168452999279
 942    2.6541491625372e-05
 943    0.00017499979859771
 944    -0.0015849517772395
 945    0.0026835420754309
 946    0.00012317641464374
 947    5.4642226307663e-05
 948    -8.2114547595483e-05
 949    -0.0021177554646959
 950    0.0031933601922172
 951    2.8004627121813e-06
 952    0.00044257582534264
 953    -0.00033942729299711
 954    0.0003306779994853
 955    0.0027952689236386
 956    -2.2251401766454e-05
 957    -0.00029125532393781
 958    2.6157096419264e-06
 959    0.00079657588584211
 960    -0.0028452730584397
 961    0.0040521067148942
 962    0.00079590067911047
 963    0.00046644727981288
 964    0.0014822672216674
 965    0.00045394290841898
 966    0.0015796676280607
 967    -0.00098637229525423
 968    8.4780032668083e-05
 969    0.00044386517080535
 970    0.00010666299841429
 971    0.00019613597452677
 972    5.3653556013405e-05
 973     0.001879982307062
 974    0.0052206584329873
 975    0.0047542757212108
 976    0.0036925557737633
 977    0.00054626332979911
 978    0.00097153083717489
 979    -0.00034665378788623
 980    -0.0010125433832453
 981    0.0059749535721434
 982    0.00016634146587931
 983    -0.00014580183228057
 984    -2.0347029299671e-05
 985    8.3897116666197e-05
 986    8.5932397813228e-05
 987    0.0068082763963482
 988    0.0046363292128955
 989    2.8881429004319e-05
 990    -0.00087451439787241
 991    0.00014808968043668
 992    0.00056650125107608
 993    -0.012019448760927
 994    -0.00033832061572687
 995    0.00041091752101398
 996    0.00043630665110989
 997    0.0016554509236409
 998    -0.0044275449954243
 999    -0.00019290074571175
 1000    -5.134186581222e-05
 1001    7.8434777237485e-05
 1002    -0.0015080608458705
 1003    -0.0033248226931828
 1004    7.0074517246085e-06
 1005    0.00010941805167957
 1006    0.0001481802194419
 1007    0.0011089859491329
 1008    0.0024735641003108
 1009    1.5470667076177e-05
 1010    -0.00013280129621798
 1011    -4.1303688387651e-05
 1012    -0.0022528210843962
 1013    -0.0053306533674377
 1014    0.00029834842250975
 1015    0.00016366322575338
 1016    4.0706029542372e-05
 1017    -0.00067224556022631
 1018    0.0026491918201988
 1019    0.0090955888335229
 1020    0.00081691453437391
 1021    -0.00078166259727387
 1022    0.0010946249474879
 1023    0.00022990641928332
 1024    -0.00048127325883623
 1025    -0.0001545657591478
 1026    6.1796939812547e-06
 1027    -1.2963675713128e-05
 1028    -6.5009664410244e-05
 1029    -5.7010625315936e-05
 1030    -2.5643386394999e-05
 1031    0.00083876001984815
 1032    0.0024513013966853
 1033    0.0067458791951709
 1034    0.00089347546554602
 1035    -0.00069903538752599
 1036    -0.0056390212098814
 1037    0.0010536756498153
 1038    -0.0027853874803537
 1039     0.011693985085657
 1040    0.0001483048192331
 1041    0.00023246428159329
 1042    -1.5548532295501e-05
 1043    0.00016316117241459
 1044    0.00036007718657646
 1045    0.0014213662953156
 1046    0.0082001568815136
 1047    0.00053583407677463
 1048    -0.00015627402451552
 1049    -0.00022271951744988
 1050    0.0063553191691389
 1051    -0.013147976489828
 1052    0.00074634226200162
 1053    -0.00065538069269951
 1054     0.001455276127133
 1055    0.0035049353073645
 1056    -0.0083598982769524
 1057    0.00015135932095757
 1058    -0.00039818579898854
 1059    0.00098098338014361
 1060    0.00060016870418614
 1061    -0.0022814283715206
 1062    0.0001898650442782
 1063    -7.3267259215867e-06
 1064    6.5603076569914e-05
 1065    0.00064758404742125
 1066    -0.0039431038753911
 1067    -9.3424086443328e-05
 1068    0.00011160368689926
 1069    0.00030915727179285
 1070    -0.00032378658599644
 1071    -0.0021500492358147
 1072    2.736735581291e-05
 1073    -0.0002103600989426
 1074    7.6009914980829e-05
 Sym= A
 Ene=               0
 Spin= Alpha
 Occup=    0.00000
   1    0.0084047577347962
   2    0.0013686780366399
   3    -0.014156953113647
   4    -0.007017185859368
   5    -0.015107077775681
   6    -0.018078559208476
   7     0.034519243293579
   8    -0.015979817114542
   9    -0.019032243924167
  10     0.036412815199643
  11     0.046573642955756
  12     0.057231549776394
  13     -0.10866629019004
  14     0.072409279460784
  15     0.080161257556078
  16     -0.15577580931368
  17    0.0028549468692339
  18    -0.0010414556715675
  19    -0.0013850006221709
  20    -0.00070679118199675
  21    0.0015077214000104
  22    -0.00085753623312634
  23    0.00060482087424036
  24    0.00039132099261954
  25    0.00031064782461392
  26    -0.00032547715570475
  27    0.0053303007153684
  28     0.011705754169646
  29    -0.027799439711108
  30    -0.017300112152595
  31    -0.003271283581642
  32    -0.0010849161713902
  33    -0.0019228975874507
  34    -0.0045300499251007
  35    -0.0015416782744744
  36    -0.0022593318219438
  37     0.012180431616874
  38     0.003767669405277
  39    0.0076718921741386
  40     0.017379921483261
  41    0.0059960570373522
  42    0.0050184731484648
  43    0.00056920148230832
  44    -0.0017805293240361
  45    3.5400501290083e-05
  46    -0.00093294044179266
  47    0.0012675102947674
  48    0.0009191094674771
  49    -0.0029659788587597
  50    -0.00017448535904336
  51    -0.0013931246462545
  52    0.0017109795967651
  53    0.0048601746439998
  54     0.010091876315812
  55    -0.022561470332008
  56    -0.017693895291962
  57    0.0014972416575161
  58    -0.0054669999680232
  59    -0.0043595322170407
  60    0.0018832350380221
  61    -0.007566207906026
  62    -0.0055091839503525
  63    -0.0055160460190407
  64     0.021160525143371
  65     0.016631497644297
  66    -0.0049835779427678
  67     0.024075660401517
  68     0.015723198403358
  69    0.00043872509848033
  70    -7.8142346116203e-05
  71    -0.0010811789044923
  72    0.0008619755600277
  73    0.00033342183016621
  74    0.00024992377326141
  75    -9.652182860316e-05
  76    -0.0024172756962477
  77    0.0013357009394134
  78    0.00077683092296873
  79    -0.011423528462238
  80    -0.022037936203574
  81     0.052851862624505
  82     0.032480650438679
  83    0.0033691463480438
  84    0.0040891963516232
  85     0.012120993068228
  86    0.0039638592186255
  87    0.0052468457143678
  88     0.016809530530514
  89     -0.01275714543146
  90    -0.015303652737257
  91    -0.045864837488533
  92    -0.0097257649268793
  93    -0.015103880062113
  94    -0.054913849115223
  95     0.002109364522697
  96    0.0012925417298169
  97     0.001261857008962
  98    4.6161984068861e-05
  99    0.00041444193989151
 100    0.0031890844121736
 101    0.00049625353909512
 102    0.0014976424847366
 103    -0.00025491814959432
 104    -0.00035976882448546
 105    -0.0068472348729083
 106    -0.013101552319309
 107     0.032123469293894
 108     0.019126141589081
 109    -0.0073404155794836
 110    0.0037147226593302
 111    -0.0053104785690558
 112    -0.010174284210835
 113    0.0046169777641947
 114    -0.006456875587111
 115     0.028188775570767
 116    -0.013786238876244
 117     0.019705118262497
 118     0.032590252744551
 119    -0.011991646934475
 120     0.015842571825846
 121    -0.00072898904305361
 122    0.0015240334679043
 123    -0.0003172285504232
 124    0.0010015801006254
 125    -0.0011866351900833
 126    -0.0015962870730206
 127    0.0015999077920581
 128    0.00049024795133004
 129    0.0020484058914234
 130    -0.0010511342529786
 131    -0.0076116434273333
 132    -0.015025258724617
 133     0.036934716700226
 134     0.020266257116436
 135    0.0041524178032553
 136    -0.0087240196536569
 137    -0.0040921273636776
 138    0.0050546835223962
 139    -0.012022932240952
 140    -0.0048944641765946
 141    -0.015228584741179
 142     0.033558456753968
 143     0.014912997020446
 144    -0.013590334698619
 145     0.037463326294422
 146     0.011929694077009
 147    -0.0012179127705112
 148    -0.00024510056458894
 149    0.00087062623727607
 150    -0.0013886509837202
 151    -0.0013203236148205
 152    -0.0014212208271066
 153    0.00039039999318084
 154    0.0016185231480607
 155    -0.0019536912614214
 156    -0.00095577176697252
 157     0.012238175615662
 158     0.025795818608466
 159    -0.060990738504711
 160    -0.039456678581628
 161    0.00020212647446605
 162    -0.0001838831066283
 163     0.013910129332106
 164    0.00012195196299668
 165    -0.0004753086971444
 166     0.019247826546165
 167    -0.00049073424340776
 168    0.0012923402688361
 169      -0.0550328592691
 170    0.00023216889089209
 171    0.0011088972515643
 172    -0.059835600397301
 173    -0.0027690377126976
 174    0.00013408445201882
 175    0.00049683430238016
 176    -3.8349119224402e-05
 177    -2.9309878898985e-05
 178    -0.0042044108364337
 179    -0.00036203322224501
 180    -0.00065207074421524
 181    6.4487126612625e-05
 182    0.0004948959490073
 183    0.0065427112142817
 184    0.0013514953811331
 185    -0.0082881353997055
 186    -0.019214347937628
 187    0.0047307311293095
 188     0.016728516029434
 189    -0.015755726179559
 190    0.0049350580752071
 191     0.017715689602916
 192    -0.016648828199537
 193    -0.015276656636135
 194    -0.051795431824675
 195      0.04888606326311
 196    -0.023363648225956
 197    -0.082426366948771
 198     0.074248315125092
 199     0.002441809144059
 200    0.0025883802695133
 201    -8.2928648784181e-05
 202    -0.0023561993838115
 203    -0.0021118612414752
 204    0.00011562893620434
 205    0.00063843618063587
 206    0.00026201843531551
 207    0.00010556050895464
 208    -0.00064736769155296
 209    0.0023045980656631
 210    0.0058313861411823
 211    -0.016953943325818
 212    -0.0008372752613394
 213    0.0067672121244765
 214    -0.015616451400558
 215     0.019467146729569
 216    0.0094523850808933
 217    -0.020400698896741
 218     0.025537454204442
 219    -0.026460721540819
 220     0.060268356971114
 221    -0.075020003062726
 222    -0.034142523220811
 223      0.05932863125875
 224    -0.076531996830938
 225    -0.00010766951872019
 226    -0.0048773812177833
 227    -0.00032547503171671
 228    0.00059036248532364
 229    0.0035619660355809
 230    0.0028977435453156
 231    -0.0064997014402491
 232    0.0010589715704896
 233    -0.002171958196512
 234    0.0052097680580218
 235    -0.0055037274756306
 236    -0.011934606387855
 237     0.025704113093974
 238     0.025979855872724
 239    -0.00052307167873363
 240    0.0061393394265995
 241    0.0013783890280247
 242    -0.00052538158974187
 243    0.0085070058741573
 244    0.0017797606243912
 245     0.002146275128848
 246    -0.024395966653613
 247    -0.0051925558023661
 248    0.0021060359928747
 249     -0.03028823731365
 250    -0.0037878903582894
 251    -0.00073451767676132
 252    -5.7733235192222e-05
 253    0.0002557729707841
 254    -0.0017084930565174
 255    -1.2843017021312e-06
 256    -0.0010499656194578
 257    0.00022530643869026
 258    0.00067871123476567
 259    -0.00086758551869688
 260    -0.00030157166868234
 261    0.0052989417760894
 262     0.011493914680246
 263    -0.026125801270169
 264    -0.019413663141478
 265    -0.0008560014938922
 266    -0.0013052587259692
 267    -0.0056061250660196
 268    -0.0013099240888886
 269    -0.0017100361184039
 270    -0.0077832444927049
 271    0.0029622130528767
 272    0.0048692946740081
 273     0.022862823334947
 274    0.0034997464252293
 275     0.004409066718579
 276     0.023467419083645
 277    -0.001238334783075
 278    -0.00055748682058458
 279    -0.00033015628691331
 280    -6.5469300544571e-05
 281    7.6367489743328e-05
 282    -0.0014186422300742
 283    -0.00027743385942898
 284    -0.00067017942255022
 285    -9.7953650643933e-05
 286    -0.00016931824578407
 287    0.0050258718284429
 288    0.0099534346492138
 289    -0.022760191481638
 290    -0.017385996636682
 291    -1.1498925713875e-06
 292    0.0051703353586518
 293    0.0024293596634512
 294    -0.00051606238851727
 295    0.0072068708744356
 296    0.0029546270052333
 297    0.00012430585722556
 298    -0.020203563465823
 299    -0.0093450584868231
 300    0.0036231868335769
 301    -0.023061689420862
 302    -0.0066498558133017
 303    0.00050177667402439
 304    3.4618878753398e-05
 305    -0.0006257363977892
 306    0.00061812370863289
 307    0.00028449130531192
 308    0.00046289366916447
 309    0.00019613277352581
 310    -0.001125002412346
 311    0.0013871005615179
 312    0.00021036460129967
 313    -0.004986900027795
 314    -0.0097882731189897
 315     0.021661605147691
 316     0.019555545270656
 317    -0.0013128610198172
 318    -0.0025090828370343
 319    -0.005190415003803
 320    -0.00099567338142653
 321    -0.0032532250478707
 322    -0.0072443389833445
 323    0.0046578832160413
 324    0.0094437455818241
 325     0.019823704151707
 326    0.00027022587422465
 327     0.009929685190111
 328     0.026149118394493
 329    0.0011924397292062
 330    1.6838930048351e-05
 331    0.00070167090823971
 332    1.1851955104919e-05
 333    3.8115927285232e-05
 334    0.0012392330521053
 335    0.00032369973458283
 336    0.0013354783561965
 337    -0.00020707845389958
 338    -0.00012151538781591
 339     0.028773485803993
 340    0.0045431023831686
 341    -0.048409303107969
 342    -0.026276225199812
 343     0.011088961430675
 344      0.12202774200522
 345     -0.16033651759338
 346     0.011525246046643
 347      0.12876149743332
 348     -0.16924477969252
 349    -0.031583604870328
 350     -0.38465172878171
 351      0.50620487301642
 352    -0.059867490515992
 353     -0.55070086834357
 354      0.72548022110231
 355    -0.017551583994316
 356    -0.010498913672267
 357    0.0027177058130295
 358    0.00064347052789333
 359    0.0069581411010622
 360    0.0076328382351334
 361    0.0019072346499442
 362    0.00052648894775692
 363    -0.0027529691567323
 364    -0.0020391943218015
 365    -0.0070696635132286
 366    -0.0095161153849054
 367     0.026164596315384
 368     0.012695991272582
 369    0.0032263660039481
 370    -0.018721394167093
 371     0.027061276458687
 372    0.0048393445731474
 373     -0.02316419242813
 374     0.033435714870554
 375    -0.011719565265625
 376      0.06863522628491
 377    -0.098349134994151
 378    -0.022714815908249
 379     0.060564208424533
 380     -0.09055624370656
 381    0.0012705495120627
 382    0.0070156304521959
 383    -0.0015183355473325
 384    0.00077088655342649
 385    -0.0046753336824661
 386    0.0008600750092646
 387    0.0098662250644422
 388    0.0044609570403048
 389    0.0037108259150962
 390    -0.0072221300268785
 391    -0.038634972421899
 392    -0.074664525082774
 393         0.17812305216
 394      0.11199887575882
 395    -0.0067356645031552
 396     0.040374779223289
 397     0.026302786762261
 398    -0.0079765573437792
 399     0.055842208105978
 400      0.03330795044409
 401     0.025142360700241
 402     -0.15243740222189
 403    -0.099469740910182
 404      0.02115116948822
 405     -0.18283747110734
 406    -0.091684194448644
 407    -0.0030903573225236
 408    -0.0023307396912527
 409    0.0075252609858837
 410    -0.0059948821313539
 411    -0.0031872367388179
 412    -0.0034217009650124
 413    0.0025927719597454
 414     0.010725900806436
 415    -0.0094739242946852
 416    0.00023091535771213
 417     0.047475083921701
 418     0.097597113603145
 419     -0.22683537973252
 420     -0.15751715618004
 421    0.0035035689357326
 422    -0.017789208238649
 423    -0.051282348023477
 424    0.0046013680371836
 425    -0.023343373456944
 426    -0.071379009567418
 427    -0.012725720767412
 428     0.066390746285219
 429      0.20062917453711
 430    -0.020088138856694
 431     0.076688924052384
 432      0.23114906621011
 433    -0.010904677880826
 434    0.0021536389283931
 435    -0.0042025429119639
 436    2.5941072186648e-05
 437    -0.00022997413343024
 438    -0.012324352514243
 439    0.00022701769591284
 440    -0.011658612000536
 441    0.0012983616035562
 442    0.0028822906133601
 443     0.042601755167351
 444     0.090752696349351
 445     -0.21214295919856
 446     -0.14435661177111
 447    0.0049372080342474
 448     0.049820679818904
 449     0.013675528355254
 450    0.0068180477403599
 451     0.069154357953475
 452     0.016635212494566
 453    -0.019000035918465
 454     -0.19778263452261
 455    -0.048618131746293
 456    -0.020708488248796
 457     -0.21606171725336
 458    -0.049023861545833
 459     0.006258575452678
 460    0.00013478665534326
 461    -0.0020978286876446
 462    0.0089962041372539
 463    -0.0024621187778006
 464    0.0076178495340025
 465     -0.00266248523977
 466    -0.0091214453911517
 467     0.012170779631994
 468    -0.00040016130520285
 469     -0.06244798616112
 470     -0.12667901529037
 471      0.30525576512255
 472      0.18371473120643
 473     -0.01347266021295
 474    -0.0090956050178283
 475    -0.071282740581685
 476    -0.016692563495085
 477    -0.0099157523671777
 478    -0.098221682297992
 479     0.050029576930205
 480     0.033415902151162
 481      0.27619830708139
 482     0.044216976052753
 483     0.018759172015894
 484      0.30592044099276
 485     0.013368852712483
 486     0.005995027764893
 487    0.0016161662957462
 488    0.0011054337552323
 489    0.0010489262432233
 490     0.021245492785218
 491    -0.00058957272464373
 492    0.0039397515142132
 493    1.3974110552097e-06
 494    -0.0016353410323578
 495    0.00021267531685946
 496    -0.00053841238577655
 497    -0.0021419663516417
 498    0.00046642003365523
 499    -0.0020047021979039
 500    0.0014787865366466
 501    0.00044653555627655
 502    -0.0035028194444996
 503    0.00028909196833328
 504    8.6894978644674e-06
 505    -9.2608669336651e-05
 506    4.9848662192632e-05
 507    5.9308541368763e-05
 508    1.1819022719768e-05
 509    -0.00050406852933135
 510    -0.0021460035668693
 511    0.0028232392395958
 512    -0.00069451716528651
 513    0.00067019782471952
 514    0.0012169368315015
 515    -0.0012299083759646
 516    0.0016265471214235
 517    -0.00064900002978798
 518    -7.2185337599051e-05
 519    -5.2602733413875e-05
 520    2.2519152027705e-05
 521    -2.2578056602479e-05
 522    0.00016724195737274
 523    -0.00040342307045789
 524    -0.00027453544483197
 525    -0.00010305868723102
 526    -4.2900496988267e-05
 527    2.368899502517e-05
 528    -0.0041308247503743
 529    -0.0032289297838093
 530    6.5667379381073e-05
 531    1.4061720534991e-06
 532    0.00015040391351876
 533    -0.00073644286315881
 534    0.0025236521329763
 535    1.3380352094258e-05
 536    7.4896722266403e-06
 537    -0.00015180137942175
 538    -0.0019697708850631
 539    0.0031028445340473
 540    1.9954475243436e-06
 541    4.7592123026069e-05
 542    3.6547302460228e-07
 543    0.00037911586745628
 544    -0.0011688967960785
 545    5.2983336813312e-05
 546    4.1991939257566e-05
 547    -5.091483825608e-05
 548    -0.00031526017927195
 549    -0.00099520815729313
 550    5.0910134583709e-05
 551    -0.00011831966514637
 552    -1.9292661240149e-05
 553    0.00025490637414497
 554    -0.00077587649213546
 555    0.0016006783790306
 556    -0.00094807302997059
 557    -0.00051303498117176
 558    0.00031409482528412
 559    -1.1541097730182e-05
 560    -0.001610907184203
 561    0.00043238240567148
 562    -6.4933949182842e-05
 563    7.2547532478308e-05
 564    -6.6328458723847e-05
 565    -2.6378149044573e-05
 566    8.8160278975651e-05
 567    0.00024262711176668
 568    0.00044025914444343
 569    0.0027901646288341
 570     0.001349700174532
 571    6.1051987819078e-05
 572    -0.00050693226388068
 573    -0.00076545483297033
 574    0.0013980570680752
 575    0.0032089753999251
 576    8.4485113616629e-05
 577    -0.00011921330891001
 578    -2.2450907038018e-05
 579    8.7108586211012e-05
 580    -1.25644381367e-05
 581    0.0024230578099153
 582    0.0028029743919798
 583    -0.00021151190142966
 584    0.0002673628319651
 585    -5.7309817774841e-05
 586    0.00020547103435848
 587    -0.0045903022682293
 588    -0.00019003572237261
 589    -0.00019687106507158
 590    0.00026776638013456
 591    -0.0013196407508543
 592    -0.0017088540171287
 593    -9.2850180548839e-06
 594    4.2195946803418e-05
 595    1.0054879235311e-05
 596    0.00022810280899761
 597    -0.0017181406833486
 598    -9.9712932010548e-05
 599    -9.9852835184519e-05
 600    -1.4992718068272e-05
 601    -0.00092026003638039
 602    0.00054365719903319
 603    -5.1553521800884e-06
 604    0.00022345968862979
 605    -1.179389020022e-05
 606    -0.001460412594544
 607    -0.00029071026079922
 608    -4.0177026793184e-05
 609    -0.00027584742353123
 610    -5.2500592404169e-05
 611    -0.002288807030778
 612    0.0053685151116327
 613     0.012819141684504
 614     0.005295666669772
 615    0.0055372882252745
 616    -0.0018219621036085
 617    0.0095001743130386
 618    0.0012974832861676
 619    -0.0060118929596084
 620    -1.6324195650061e-05
 621    -0.00023316059712884
 622    -0.00011559777188607
 623    0.00036938842638172
 624    0.00016953031308947
 625    -0.00087938706941365
 626    -0.0022963315270577
 627    -0.00089879089639531
 628    0.0017358226288042
 629    -0.0041004399883859
 630    0.0038766944438462
 631    -0.0034471388126164
 632    0.0069739855980957
 633    -0.0060779149963233
 634    -0.00030452731616993
 635    -0.00029298671064149
 636    9.9570512551566e-05
 637    -0.00076985210621264
 638    -2.4868999308884e-05
 639    -0.0014192725113083
 640    0.0076161807320703
 641    0.00045223527761001
 642    -2.7375279542003e-05
 643    -4.7222030011029e-05
 644    -0.003173295033887
 645     0.013415042017942
 646    -0.00024708675028324
 647    -0.00035804953597713
 648    -0.00052043743564073
 649     0.006870639292106
 650    -0.014862756699763
 651    0.00022649339813422
 652    0.0017952228524652
 653    0.00058823164447376
 654    -0.0035189064929168
 655    -0.0031118747963296
 656    2.8845848130325e-05
 657    6.9100190559018e-05
 658    0.0001406652515258
 659    0.0058360843829079
 660    -0.016625549706869
 661    -0.00013102583407105
 662    -0.00025971742265672
 663    7.3961299084204e-05
 664     0.001465617507698
 665    -0.0027728568450175
 666    -3.9362604675471e-06
 667    0.00015736443861322
 668    0.00023154734791367
 669    0.0012125390703338
 670    -0.0042814985177986
 671    -0.012436745254396
 672    -0.0004383436966585
 673    0.0009498605964147
 674    0.0026536645965798
 675    0.0001299255700334
 676    0.0032191736038584
 677    -0.0093305617982704
 678    -2.1696317548061e-05
 679    0.00019381094417895
 680    -9.4718344607787e-05
 681    -0.00019574879670389
 682    8.3339999994175e-05
 683    -0.0033274127960285
 684    -0.0096045775832078
 685    -0.015267507685067
 686    0.0053153368520539
 687    0.0030771195847708
 688    -0.0011315614025559
 689    -0.0016727101080963
 690    -0.0087892183009201
 691    -0.0035724103126469
 692    -0.00031238368376159
 693    0.00063294976547067
 694    0.00012133389186493
 695    -0.00025481096896055
 696    0.00032884240516757
 697    -0.021361146174118
 698    0.0019114430622054
 699    -0.0021137961928711
 700    -0.0019885363941439
 701    0.0015940727227289
 702    -0.0025210576966103
 703     0.012136254215295
 704    0.00037199511921686
 705    -0.0004316247263921
 706    0.0006474737483717
 707    -0.0054355897487746
 708     0.018762972413915
 709    0.00012107046037698
 710    0.0010833464584631
 711    -0.00090871991338338
 712    -0.0057136386220848
 713    -0.00056793451584645
 714    -0.00041909255060611
 715    -0.00026490819796745
 716    2.2647145744927e-05
 717    0.0031548465812061
 718    0.0062115993459007
 719    0.00034055907436218
 720    -0.00031804541922482
 721    -8.8208767394279e-05
 722    -0.0033304888967625
 723    0.0095978817092762
 724    -0.0001170242243024
 725    0.00036784995682087
 726    0.00064357724216595
 727    -0.0018011015401295
 728    0.0061590326014636
 729     0.017982185689254
 730    0.0019289897127991
 731    -0.0027742829910461
 732    -0.00059446172765685
 733    -0.0025956377006583
 734     0.011084716991572
 735    -0.0040332385078583
 736    -3.7736862742074e-05
 737    -3.8917881177299e-05
 738    4.1492772005722e-05
 739    6.0161285555546e-05
 740    -0.00018173624874221
 741    0.0030205688606156
 742    0.0093807497202194
 743     0.010076746525717
 744    -0.0049795647629299
 745    0.0022407952798626
 746    -0.0011332321401586
 747    0.0039946412952339
 748    0.0025703708768524
 749    0.0071304631097435
 750    -0.00052069763775475
 751    -7.6431910758676e-05
 752    -0.00010197717581808
 753    -0.00026676089579506
 754    -0.00047897829934562
 755     0.019360900444099
 756    0.0034766410541854
 757    0.0022589763740496
 758    -0.0013729648940232
 759    0.0020796791557439
 760    0.0045534213808305
 761    -0.017049817506784
 762    0.00015934892506046
 763    0.00099608908930034
 764    -0.00082211173031105
 765    0.0015098506207428
 766     -0.00678138238063
 767    -0.00052849135357427
 768    -0.00080194724587856
 769    0.00015139726725401
 770    0.0042912351667852
 771    -0.013223829082697
 772    0.0002386643717475
 773    -0.00057359191958949
 774    -0.00044259682349725
 775    -0.0040763254350762
 776    -0.010109251702534
 777    -0.00031181780537979
 778    0.00030670993203829
 779    0.00032072146180068
 780    0.0060497189549412
 781    -0.0023157016369959
 782    0.00053627602345411
 783    -0.00029606315549411
 784    0.00043040585573144
 785    -0.00022970618486309
 786    0.00024926280198597
 787    0.0040682485994919
 788    0.00075301772743257
 789    0.0020672338491757
 790    -0.0016178023708188
 791    0.0034201054918394
 792    0.0047153959883002
 793    -0.0096833070828029
 794    0.00038912828097797
 795    -9.9812973977691e-05
 796    0.0002057669484427
 797    0.00013041072245166
 798    0.00029149007761661
 799    -0.00039943809268175
 800    -0.002064264257548
 801    0.0054641431034072
 802    0.0016410402060549
 803    -0.0075659955771961
 804    0.0030877610722667
 805    -0.00044729366510531
 806    0.0065386056913604
 807    0.0013304153536502
 808    -0.00014187098232901
 809    0.00015968730594756
 810    -4.9953311019699e-05
 811    -0.00010980933242092
 812    -0.00014972831431622
 813    -0.0016950715488699
 814    0.00083331865516209
 815    0.00032771738202243
 816    -0.00042977683279116
 817    0.00062434811081571
 818    0.0031953525167848
 819    -0.012055611260517
 820    -0.00063704546491164
 821    8.2586377942714e-07
 822    0.00030161474631102
 823    -0.0054994715747619
 824     0.003856488438011
 825    1.9390130666606e-05
 826    7.9145129417892e-05
 827    0.00018538504228973
 828    0.0024782074345991
 829    -0.016725005098832
 830    -0.0001893977534488
 831    -0.00036469781586761
 832    -0.00088409130892417
 833    -5.9648597378714e-05
 834    -0.00075688594176101
 835    7.4240138981793e-05
 836    -0.00011030474026691
 837    0.00030899204901046
 838    -0.0020320348154794
 839     0.013342034957898
 840    0.00036059691347317
 841    0.00046927920951989
 842    1.9014396789597e-05
 843    0.0014218112745071
 844    -0.0067490709453091
 845    -0.021923066719878
 846    0.0016978083839364
 847    -0.0012926119450699
 848    0.0015440178835893
 849    0.0014840683992263
 850    0.00092986574875789
 851    -0.0004707834165782
 852    -4.6117182668323e-05
 853    -8.1620138851776e-05
 854    -1.0942204708019e-06
 855    -0.00010436662890138
 856    -1.5211399890582e-05
 857    -0.003546288205242
 858     -0.01027310916673
 859    -0.018445474381992
 860    -0.011617728993034
 861     0.001266357813322
 862    -0.0026258231100077
 863     0.023134496747064
 864    -0.010564105514541
 865      0.01096881038846
 866    0.00048433302582145
 867    7.8141782473398e-05
 868    -0.00083581579878883
 869    -6.595918483745e-05
 870    -0.00012532824015193
 871    -0.015044612747325
 872      0.01824184606304
 873    0.0023729785720664
 874    -0.00047341398245868
 875    0.0016771238303401
 876    -0.013598668361709
 877     0.025928412717462
 878    0.0024071788763486
 879    -0.0019036407615314
 880    0.00095825613122374
 881    -0.0073906214472111
 882    -0.012653114932087
 883    2.0041252236803e-06
 884    -0.0015111066216575
 885    0.0013695595230564
 886    -0.0013937717371051
 887      0.01052297638008
 888    0.0007631211620264
 889    0.0001207566775413
 890    -0.00019278689000276
 891    -0.0013164417164425
 892    0.0041079275963596
 893    6.9264883466447e-05
 894    -0.00062415656690594
 895    0.00014433871145464
 896    -0.00073913540121722
 897    0.0056491141443027
 898    2.9828024116802e-06
 899    4.425520080411e-05
 900    0.00063397811496132
 901    -4.6949558264353e-05
 902    -0.00024426039202394
 903    -0.0011771528870566
 904    0.0011603613285466
 905    0.00026810822640431
 906     0.000352333459742
 907    -0.00026060135209193
 908    -0.001092938280836
 909    0.0022989980427089
 910    -1.3282056163814e-05
 911    -9.4640519081593e-05
 912    5.3506280707872e-05
 913    -3.8938772016885e-05
 914    -0.00014452414580412
 915    -0.00059985358297936
 916    -0.0016880912397625
 917    -0.0032235390952181
 918    -0.0013312264340604
 919    -0.0011734962995497
 920    0.00018997692375036
 921    0.00027244628922435
 922    -0.0013031960448102
 923    -0.0015614231593767
 924    8.7394747445181e-05
 925    8.370165370757e-06
 926    -2.4112344451012e-05
 927    2.9125954966863e-05
 928    -7.7945088199083e-05
 929    -5.8046815540071e-05
 930    0.0032198192711686
 931    0.00011824400114938
 932    -0.00026206096483341
 933    0.00016011604521666
 934    -0.005068407247689
 935    -0.00059061871122985
 936    0.0002542895084573
 937    0.00034337908159713
 938    -0.00045054181153644
 939    0.00066580708502755
 940    0.0013972423335395
 941    7.907915117262e-05
 942    -4.9122876060085e-06
 943    -3.8688860669945e-05
 944    -0.00064237873239676
 945    0.0023916137368767
 946    0.00016091410631721
 947    0.0001311901954623
 948    9.065587999912e-05
 949    0.00076561687206535
 950    0.0002234161305323
 951    8.2385906753578e-05
 952    0.00011052123231625
 953    0.00024768232625557
 954    0.0010979507905498
 955    -0.00010859183969821
 956    -5.8968695142802e-05
 957    -5.677521723465e-05
 958    -0.00031237639164934
 959    0.00010829184139956
 960    -0.00065308849372185
 961      0.00308764530813
 962    7.2849130940685e-05
 963    0.00072561391541626
 964    -0.00025364837346765
 965    -0.00019959344959563
 966    -0.00076200655252521
 967    -0.00082825103497313
 968    2.5042738343529e-05
 969    -4.6620920265906e-05
 970    3.0830739486627e-05
 971    9.7876721414012e-05
 972    -8.9319715627453e-06
 973    0.0002466019154069
 974    0.00048243584638524
 975    0.0018946655149554
 976    0.00025481722698033
 977    0.00075334846946988
 978    -0.0014163845159849
 979    -0.00034594572985618
 980    0.00041333747482957
 981    0.0021891956171016
 982    3.3927762455027e-05
 983    -9.5885247049705e-06
 984    -5.1384197902397e-06
 985    1.7314103658493e-05
 986    -2.0307823622519e-06
 987    0.00032114670052568
 988    0.00067298585343514
 989    -3.5277058409826e-05
 990    7.2243479313504e-06
 991    -4.8886921858874e-05
 992    0.00070656052326093
 993    -0.0041243138265147
 994    0.00011118574775472
 995    9.3523791346484e-05
 996    4.1764181756921e-05
 997    -0.0010861913769132
 998    -0.00017558871388114
 999    -5.9487732961235e-05
 1000    9.3989230351482e-05
 1001    1.7987762818117e-05
 1002    -0.0012262141485286
 1003    -0.0021216759350998
 1004    0.00011834061327365
 1005    -4.2812017595556e-05
 1006    3.3954651029768e-05
 1007    -2.9263273924079e-05
 1008    0.00020098861954841
 1009    1.0310143315398e-05
 1010    1.6210569435184e-05
 1011    6.1900153124233e-06
 1012    0.0003742373468012
 1013    -0.001713493573824
 1014    -1.0707818863636e-05
 1015    -2.0134325680819e-05
 1016    -3.3886535344635e-05
 1017    0.00017388289344486
 1018    -0.00085915711136673
 1019    -0.0024865921622947
 1020    -0.00022799835680714
 1021    0.00019318563995336
 1022    -0.00010841569108548
 1023    -0.00033501407386619
 1024    -0.00017041113967482
 1025    0.00024774956765964
 1026    2.2848342402888e-05
 1027    -2.1243635785942e-06
 1028    -1.4183381914704e-05
 1029    -2.3408573164283e-05
 1030    8.7053987466182e-06
 1031    -0.00047323903646814
 1032    -0.001467852189263
 1033    -0.0019888295140969
 1034    0.0026234066048741
 1035    -0.00023716391192287
 1036    -0.00076283487393572
 1037    -0.0047656287346654
 1038    0.00092244976886203
 1039    0.00045665986971992
 1040    -1.168590519689e-05
 1041    4.2487104411685e-05
 1042    -0.00013699737641453
 1043    -6.0675813921699e-05
 1044    3.3821044348188e-05
 1045    -0.0024409551472238
 1046    0.0054068035501123
 1047    -0.00036994175112316
 1048    0.00028517403847569
 1049    -0.00011843357389822
 1050    -0.0016968048028997
 1051    0.0033278731166607
 1052    -0.00035398830111165
 1053    0.00011950540196823
 1054    -0.00012668357413131
 1055    -0.00096139160848245
 1056    -0.0051220810797435
 1057    -1.0000548264363e-05
 1058    0.00023494056669539
 1059    -0.00016444029405033
 1060    -8.4407353779492e-05
 1061    0.0016605544692842
 1062    -0.00011922079895567
 1063    -4.4642523317293e-05
 1064    3.2172091816692e-05
 1065    -0.0002091436730675
 1066    0.00011249867081076
 1067    -2.9913564546044e-05
 1068    5.3060000163844e-05
 1069    -5.8957001171059e-05
 1070    -0.00018101902266295
 1071    0.00060843215444497
 1072    1.0584822878912e-05
 1073    8.2533327932077e-05
 1074    6.6956653381305e-06
 Sym= A
 Ene=               0
 Spin= Alpha
 Occup=    0.00000
   1    -0.024736112837149
   2    -0.0038887168880555
   3     0.043951045125857
   4     0.010847116068359
   5    -0.0068797415797134
   6       0.1294801029265
   7      -0.1554742474461
   8    -0.0074607518053337
   9      0.13680679918702
  10     -0.16408914768421
  11     0.025416549683865
  12     -0.40887685050362
  13      0.48990798708735
  14     0.018034568056886
  15     -0.58413370483301
  16      0.70343787191902
  17    -0.0089533111751376
  18    0.0089754715290159
  19    0.0024658356153001
  20    -0.011974558232718
  21    -0.0075949998624218
  22    0.0011608486777016
  23    -0.00093841232817379
  24    -0.001751106654195
  25    0.0064282154118365
  26    0.00052079473730626
  27    0.0019802728932934
  28    0.0039212156287529
  29    -0.010826410090505
  30    -0.0013546074899045
  31    -0.0045474590941037
  32    -0.016359201752409
  33      0.01845916391768
  34    -0.0057207504853276
  35    -0.021257071007863
  36     0.024134380326044
  37     0.017788272197888
  38     0.062773632340705
  39    -0.070845383977903
  40      0.01127560508986
  41      0.06228477401338
  42    -0.071712408985741
  43    0.0011973471637101
  44    0.0039254512426461
  45    0.00017072790948771
  46    -0.00083197232104784
  47    -0.003468722204296
  48     0.000791990058571
  49    0.0059690039114618
  50    -0.00041366051571331
  51    0.0016000606751135
  52    -0.0048726077634959
  53    -0.036082078489999
  54    -0.073878146574949
  55      0.16846057205791
  56      0.12621661033977
  57    0.0038848329269928
  58     0.038696723487867
  59     0.020786280756523
  60    0.0050166514766019
  61     0.053781729097399
  62     0.026843223886301
  63    -0.014564444607985
  64      -0.1502985214372
  65    -0.078967054891129
  66    -0.018384065538649
  67     -0.17632113800888
  68    -0.082380617788401
  69    -0.0039480261120983
  70    -1.4227396663297e-05
  71     0.005202492314424
  72    -0.0069077081917363
  73    0.0019194327598551
  74    -0.0024030728543515
  75    0.0026375129668543
  76     0.012599638590003
  77    -0.0082314876156366
  78    0.00076185924079544
  79      0.05020708880809
  80     0.098143824922369
  81      -0.2354099531516
  82     -0.14363044450178
  83    -0.0053938494884774
  84     -0.02411737206238
  85    -0.053803907022372
  86    -0.0060892468322775
  87    -0.030762945760528
  88    -0.074414442421464
  89       0.0196299395365
  90     0.091145816022056
  91      0.20469821243121
  92     0.016638706841823
  93     0.085909567983695
  94      0.23964467494959
  95    -0.0093975902257277
  96    -0.0031681549288504
  97    -0.0071540997411386
  98     0.000429324497894
  99    -0.0019650242461767
 100    -0.013820272164319
 101    0.0016279349580372
 102    -0.0095314591775175
 103    0.0014161953633091
 104    0.0024989599322723
 105    0.0020317180797798
 106    -6.4374910433787e-05
 107    -0.0049868330946063
 108    0.0046092491246588
 109    -0.0020191299361295
 110    -0.021887117717911
 111     0.026920002888978
 112    -0.0024235627910183
 113    -0.027245246711436
 114     0.033476556111293
 115    0.0074027095648325
 116     0.080425976327474
 117    -0.098974801838684
 118    0.0018387657545463
 119     0.074025369472085
 120    -0.089429183006572
 121    0.00049400458309288
 122    -0.0067944076133682
 123    0.0021645252867994
 124    0.00074385840795487
 125    0.0058883940674028
 126    0.0021419275538802
 127    -0.010899901778235
 128    -0.0046640924955608
 129    -0.00039118042976378
 130    0.0086660349894483
 131     0.052331879470875
 132      0.10588044699443
 133     -0.25797989910116
 134     -0.14738919698352
 135    -0.0097188618484358
 136     0.060879607971132
 137     0.013903872523758
 138    -0.012369835152976
 139      0.08374208835696
 140     0.016002240013893
 141     0.036096996217238
 142     -0.23612438373043
 143    -0.050660358397754
 144     0.035355472282984
 145     -0.25747381178495
 146    -0.035287001762181
 147    0.0070636177947156
 148    0.0015053339657818
 149    -0.0026997253115842
 150    0.0099056403620624
 151    0.0048069725768654
 152    0.0091801606129323
 153    -0.0016870229463481
 154    -0.0056708961021291
 155      0.01500594037032
 156    -0.00095801731824268
 157    -0.054680771551652
 158     -0.11563900969673
 159      0.27051867657723
 160      0.18406844530749
 161      0.01014869456085
 162    -0.0058709107614207
 163    -0.061919139679333
 164     0.013627280283954
 165    -0.0067417852130442
 166    -0.085969538939307
 167    -0.038399758117733
 168     0.018874640289372
 169      0.24488369548685
 170    -0.042457133051206
 171     0.023397427761818
 172      0.27245715182418
 173     0.013020943570075
 174    -0.003749110557256
 175    -0.00052917811265239
 176    0.00084544242581205
 177    0.00088654351744454
 178     0.017865910068084
 179    -0.0031785665994422
 180    0.0065293192307877
 181    0.0006398972162171
 182    -0.0028725008487242
 183    0.0062783381547057
 184    0.0012767315450857
 185    -0.011130161316889
 186    -0.0088330372741746
 187    -0.001375564926847
 188     0.020572235565675
 189    -0.019834388464023
 190    -0.0015081707284798
 191     0.021822402931152
 192    -0.021049706504232
 193    0.0039674361201072
 194    -0.063709751993267
 195     0.060987577436999
 196     0.002905123222569
 197     -0.10075455359385
 198     0.098713782793406
 199    0.0025451514891704
 200    -0.0013641752270279
 201    -3.1385541910517e-05
 202    -0.0021129182257275
 203    0.0014037997927984
 204    -0.00053300103889471
 205    -0.0010011117764444
 206    -7.652716061829e-05
 207    0.0016132668966726
 208    3.6549487685741e-05
 209    0.0043417696778214
 210    0.0099189588559285
 211    -0.024734018893109
 212    -0.010551966445793
 213    0.0043891909754155
 214    -0.0062944570151729
 215    0.0046985228130416
 216    0.0059887857671444
 217     -0.00832825520678
 218    0.0063610932946398
 219    -0.016619891496873
 220     0.023811758556132
 221    -0.017779495113361
 222    -0.021174046896678
 223      0.02587439067644
 224    -0.020766173410313
 225    0.0005119826166047
 226    0.00020345126317464
 227    -7.7039553178297e-05
 228    -0.00053016511500811
 229    0.00011479094338541
 230     0.001482000878549
 231    0.00038972288374527
 232    7.0766781904036e-05
 233    -0.0015966769450785
 234    9.5504600035779e-05
 235    -0.0067926455802184
 236    -0.014846005693783
 237     0.032999121894373
 238     0.029057599494621
 239    0.00012477788065109
 240    0.0074366888925938
 241    0.0016243578983386
 242    -6.9679118386451e-05
 243     0.010373895783422
 244    0.0022279442548427
 245    -0.00075528234318972
 246    -0.029884089459003
 247    -0.0060057903247652
 248    0.0017162154358575
 249    -0.035634487385362
 250    -0.0065126605675598
 251    -0.00087541541580373
 252    -3.048514078778e-05
 253    0.00031829137763013
 254    -0.0020414298064087
 255    -0.00017630640762625
 256    -0.0012689773323064
 257    0.00014790825390877
 258    0.0010354866895031
 259    -0.0011313256866673
 260    4.5986246307824e-05
 261    0.0065903620711012
 262     0.014419997570961
 263    -0.030903030239567
 264    -0.029939462852961
 265    0.00032156683121137
 266    -0.0016537370325959
 267    -0.0071462058651311
 268    0.00039505940662819
 269    -0.0021871516804024
 270    -0.0099128461171939
 271    -0.0011575175421411
 272    0.0061651555556729
 273     0.028882633562253
 274    0.00078051737322916
 275    0.0051638883447209
 276     0.032545179440792
 277    -0.001642563894527
 278    0.00018076915300965
 279    -0.00036841453478099
 280    -7.3305532732969e-06
 281    -0.00010845092844792
 282    -0.0019531872792202
 283    -6.4099233980841e-05
 284    -0.00081950315323089
 285    -0.00036513891080895
 286    0.00028528412046613
 287    0.0062484493596181
 288      0.01234908130291
 289    -0.027247735929908
 290    -0.024039315378244
 291    -0.00036461674437516
 292    0.0063509391098681
 293      0.00303720499852
 294    -0.00016679197536841
 295    0.0088535495710767
 296    0.0036796933433182
 297    0.0010517769789949
 298    -0.024775903771187
 299    -0.011675987527175
 300    0.00029432368563239
 301    -0.029234739119535
 302    -0.0085052968369249
 303    0.00064744559824351
 304    2.201993029772e-05
 305    -0.00077782567640781
 306    0.0007940306579623
 307    -7.9950399896732e-05
 308    0.00053266748989238
 309    -0.00019042276346096
 310    -0.0015539658226685
 311    0.0016809907781759
 312    5.9851638192195e-06
 313    -0.0063491755146591
 314    -0.012424128274324
 315     0.027269417581627
 316     0.025807711048106
 317     0.001025737929388
 318    -0.0031347861436109
 319    -0.0066488573251948
 320    0.00088841250778156
 321    -0.0039312681609158
 322    -0.009198239838126
 323    -0.0034588429820445
 324     0.012011692024463
 325     0.025431123494611
 326    -0.0016375233813676
 327     0.010201672348994
 328     0.032508785287125
 329    0.0015056730593973
 330    3.3707370083179e-06
 331    0.00084563689495744
 332    3.3277727895227e-05
 333    -6.1165548540059e-05
 334    0.0013247409596251
 335    -0.00018691504998986
 336    0.0017051291525185
 337    -0.00019803629802321
 338    0.00041044561975163
 339    0.0067998556931639
 340    0.0011134850490699
 341    -0.011398804727171
 342    -0.0058074834626231
 343      0.01335076405646
 344     0.028247325163211
 345    -0.021058707505838
 346     0.014083429382308
 347     0.029816622156694
 348    -0.022261672637379
 349     -0.04154505127696
 350    -0.088580708184656
 351     0.066071774034442
 352    -0.061386487033308
 353     -0.12949631104935
 354     0.097660508227487
 355    -0.0016122602715614
 356    -0.0023288348276466
 357    -0.00047151969302254
 358    -0.00079871381831694
 359    0.0010825202718776
 360    0.00032795116972275
 361    0.00016476258378679
 362    9.7105070249782e-05
 363    -0.00013601082170275
 364    -0.00019917259451818
 365    -0.0058578619593684
 366    -0.010921806139889
 367     0.027122826956707
 368     0.014788844814893
 369    0.0060887942383439
 370    -0.0034481186103986
 371    0.0044960157509959
 372    0.0084372357684307
 373    -0.0041201988304278
 374    0.0056086002045793
 375    -0.023281584789738
 376     0.012712255640332
 377    -0.016418620814864
 378    -0.026700761857798
 379    0.0098592689725938
 380    -0.015355697355559
 381    -0.00024912827630479
 382    0.0012780522994799
 383    -0.00023114469932068
 384    0.00095213611609887
 385    -0.00097926724304072
 386    -0.00064566492981254
 387     0.001516089361294
 388    0.00050000566617438
 389    0.0020647632761844
 390    -0.00095244640628383
 391    -0.0091200435843168
 392    -0.017715379201466
 393     0.042752144792851
 394     0.026001369313676
 395    -0.0031521721665901
 396    0.0093572330060816
 397    0.0040514198944924
 398    -0.0038377292172529
 399     0.012989265579745
 400     0.005196150008798
 401     0.011765744586268
 402    -0.035710382139815
 403    -0.015249321993299
 404     0.010057666253172
 405    -0.042574790802859
 406    -0.015081719020391
 407    -0.00086689427932702
 408    -0.00042667433060877
 409    0.0011740530340494
 410    -0.0013811506068273
 411    -0.0011674400146706
 412    -0.00086848338736497
 413    0.00032897880165568
 414    0.0017601337036433
 415    -0.0023282492744769
 416    -0.00053350478112112
 417    0.0060884977431076
 418     0.012693856635868
 419    -0.029075299692224
 420    -0.021694315314037
 421    -0.00095018311483902
 422    -0.0036284659398283
 423    -0.0066589691956155
 424    -0.001016841484258
 425    -0.0046855737864166
 426    -0.0092367865332847
 427    0.0038830947234722
 428     0.013703565594721
 429     0.026175208196414
 430    0.00057285259163529
 431     0.014723455170532
 432     0.029888997498849
 433    -0.0013565872184383
 434    -6.6306168051121e-05
 435    -0.00089933624823255
 436    4.6749471540895e-05
 437    5.7079119038556e-05
 438    -0.0016989448061408
 439    -0.00060131446727684
 440    -0.0022608761105976
 441    0.00036690790501606
 442    0.00018985324508293
 443    0.0097023148264342
 444     0.020548050484806
 445    -0.047978919625418
 446     -0.03332286177996
 447    -0.00045194335062667
 448     0.010961086314566
 449    0.00096609920717518
 450    -0.00031850629094157
 451     0.015280915708683
 452     0.001135488687336
 453    0.0015919856267911
 454    -0.043660982019036
 455    -0.0031823572914574
 456    -0.00016548066810408
 457    -0.048509363227635
 458    -0.0038385080399191
 459    0.0012349273479759
 460    3.8419138704036e-05
 461    7.4748025437504e-05
 462    0.0020076033675323
 463    -0.00020589457301866
 464    0.0015954959578301
 465    -0.00056699790367331
 466    -0.001123075713041
 467    0.0028737597180957
 468    0.00065673794967888
 469     -0.00852733042009
 470    -0.017052788459146
 471     0.041202132405509
 472     0.025324570939153
 473    -0.0038367375603472
 474    -0.0032243978338071
 475    -0.0093983412970118
 476    -0.0048386160714583
 477    -0.0038867276198995
 478    -0.013010317412601
 479     0.014044369548008
 480     0.011815863793743
 481     0.036461694969431
 482     0.013526751828563
 483    0.0097653658404419
 484     0.041656603965286
 485    0.0018272518220535
 486     0.001356936843311
 487    0.00068217510843361
 488    0.00032654381543386
 489    0.00023268657053584
 490    0.0029429924232806
 491    0.00071875083359852
 492    0.0014477853383061
 493    4.4324631641463e-05
 494    -0.00046155116693227
 495    -0.00018771816532704
 496    0.0011815910761664
 497    -0.0052378330474535
 498    -0.00024108653287928
 499    0.0094585889527897
 500    -0.0089094882381543
 501    0.0026047000331382
 502     0.012046034517298
 503    -0.0082587797621319
 504    -4.9389524781886e-05
 505    0.00055277570167445
 506    -7.5693182705008e-05
 507    3.5066583531919e-06
 508    -0.00030247695433055
 509    0.00024615676845202
 510    0.0015100666999279
 511    -0.0046539957611991
 512    0.00081144730717823
 513    -0.0032888384127442
 514    0.0022019489785477
 515    0.00034779170860551
 516     0.003864943109236
 517    -0.0037746427308433
 518    0.00014364030410432
 519    -0.00011354895445894
 520    -9.494624158234e-07
 521    5.0286166871133e-05
 522    0.00011822042965443
 523    0.0018225217728151
 524    -0.012250773782216
 525    0.0006055630732375
 526    0.00025580751607112
 527    -0.00022356553561389
 528    0.0015677845410481
 529    0.0024940131381576
 530    4.850166454768e-05
 531    0.00044679728140853
 532    -0.00094072287394471
 533    -0.0015630703373201
 534     0.012865958749728
 535    -0.0006534441036486
 536    0.00038073188512904
 537    -0.00020681375715555
 538    0.0067797717694003
 539    -0.0064098757419407
 540    1.5028187969336e-05
 541    -8.8256426993812e-05
 542    0.00018432442133314
 543    -0.0048590270115022
 544     0.014898451418821
 545    -2.0877788853915e-05
 546    -0.00013748848544128
 547    0.00010626184918857
 548    0.00052606213659861
 549    0.0010054209713506
 550    -0.00018288586209118
 551    0.00026737149503688
 552    -0.00019058844664658
 553    0.0016993603386076
 554    -0.0061491001634577
 555    -0.016105168876551
 556    0.0011229831391361
 557    0.00043573218503413
 558    0.0029368042555021
 559    -0.0020434788857126
 560    0.0029070205656827
 561    -0.011332312912309
 562    -3.124962535251e-06
 563    -0.00024156598932007
 564    -6.5639043655178e-05
 565    -5.9306886143937e-05
 566    -1.8060691377255e-05
 567    -0.0031423063684892
 568    -0.0098860767514668
 569    -0.0097269148212452
 570    -0.0047303101322575
 571    0.0022590225820872
 572    -0.00078122485889246
 573    0.0034402953776705
 574    -0.0086148057919688
 575    -0.0060967680869862
 576    -0.00052310753956726
 577    -0.00038140768028551
 578    6.3157544220394e-05
 579    -0.00029504869635959
 580    -0.00017978005462208
 581    -0.019767020081064
 582    -0.0091664238473456
 583    0.0024615323963765
 584    -0.0020583557598351
 585    0.0013263669282804
 586    -0.0050653283519841
 587     0.020272295111241
 588    0.00021353046984325
 589    0.00093073454697266
 590    -0.0010560321315991
 591    -0.0026118289554996
 592     0.010552408884399
 593    -0.0005506307273953
 594    -0.00017401089533923
 595    0.00078033991493323
 596    -0.0038694052126394
 597     0.011543045285406
 598    0.00017637714335038
 599    0.00039984032899308
 600    0.00068360784868579
 601    0.0039092868205044
 602    0.0096990939234943
 603    -0.00033670964374385
 604    -0.00031611040328585
 605    -0.00031352802390107
 606    -0.0065284629075896
 607    0.0010236665114491
 608    0.00058245820947511
 609    -0.00041317974021098
 610    0.00021805015722381
 611    -0.00046087644805183
 612    0.0010425032217696
 613    0.0016155936768703
 614    0.00023770993009495
 615    0.0012261211712822
 616    -0.00044342030157591
 617    0.0013406693464678
 618    0.00095495457650958
 619    -0.0017722703333888
 620    -1.8994049017339e-06
 621    -5.6352883822413e-06
 622    -1.1820511477112e-05
 623    7.660997065623e-05
 624    -3.7424356769447e-06
 625    -0.00068411632344539
 626    -0.0018227257682113
 627    -0.0023968578115004
 628    0.0004734458392399
 629    -0.00051286403551579
 630    0.0016847549699033
 631    -0.00012433042690383
 632    0.00082083613060365
 633    -0.0020015402349749
 634    -3.7722461131587e-06
 635    -9.2780543025103e-05
 636    4.5949650530467e-05
 637    -0.00014070959336906
 638    1.6325062535143e-05
 639    -0.0013269744376113
 640    0.0052828062209563
 641    0.00015113483389735
 642    3.5196073095091e-05
 643    1.5635220653045e-05
 644    -0.0024809282532152
 645    0.0029297229653108
 646    -0.0002527412531398
 647    -0.00028491459591852
 648    -0.00024544434035244
 649    0.00038677161759673
 650    -0.0028021152829353
 651    -0.00026005936765548
 652    0.00033560669093516
 653    -0.00010248114577943
 654    -0.00088717334143784
 655    0.00010021204806464
 656    -4.5096827168272e-05
 657    3.5219118198098e-05
 658    5.4362103358379e-05
 659    0.00030503906254904
 660    -0.0021556107770987
 661    -1.4117808787123e-05
 662    -2.9585012876474e-05
 663    1.3824749016021e-05
 664    0.00067866202945272
 665    -0.0016353424254426
 666    -2.2077119317839e-05
 667    -4.1645023023391e-05
 668    9.2713534798621e-07
 669    0.00071344101512978
 670    -0.0024049524317509
 671    -0.003304639179563
 672    0.00053567196820044
 673    -0.00016690854624819
 674    0.0011509904465258
 675    0.00041699700485029
 676    -0.00030815462469642
 677    -0.0029790314708667
 678    -6.3399040409615e-05
 679    4.8557500921353e-06
 680    -7.0225989430424e-05
 681    -5.4433836124223e-05
 682    -6.5366236868397e-05
 683    -0.00082122232408249
 684    -0.0026124222709668
 685    -0.0023753444113974
 686    0.00056865731037876
 687    0.00083426389638407
 688    -0.00069242214120004
 689    -0.00046139482922188
 690    -0.0018688615548226
 691    0.0010900483332725
 692    -6.2358307011656e-05
 693    0.00024206955837155
 694    2.5029270610256e-05
 695    -3.0948881569742e-05
 696    8.3299987470308e-05
 697    -0.0044284213311993
 698    0.0016824441957284
 699    -0.00055764893871838
 700    -0.00042748163199686
 701    0.00041736555129159
 702    -0.0016420150094177
 703    0.0027381350888438
 704    0.00018972517936141
 705    -6.177547982554e-05
 706    0.00023275394046354
 707    -0.0014717414399918
 708    0.0025378320924432
 709    0.00012461783641742
 710    0.00017047731397257
 711    -0.00010449799145504
 712    -0.003185095571445
 713    -0.00015048428965255
 714    -0.0001087867858368
 715    -0.00033984802012762
 716    -3.1488425200288e-05
 717    0.00040276458422721
 718    0.0028266817564575
 719    0.00010146236242247
 720    9.6645595957585e-05
 721    -4.4674494378495e-05
 722    -0.0010323017018437
 723    0.0020491078707617
 724    4.6796713838322e-05
 725    4.1526075494638e-05
 726    0.0001862327477938
 727    -0.00060571603616963
 728    0.0018750219764077
 729    0.0031847217122075
 730    -0.00063699620370625
 731    -0.00082499219198127
 732    4.2732705081466e-05
 733    -0.00012185833757391
 734    0.0030381493914215
 735    0.00058196908541871
 736    -3.4414138394268e-05
 737    5.4967827900913e-05
 738    8.5211783042359e-05
 739    3.6172390042624e-06
 740    3.3599253653944e-05
 741    0.00056918867452066
 742    0.0018114984011164
 743    0.0013680427077418
 744    -0.00065481255741642
 745    -0.000208324166896
 746    -0.00038675945380799
 747    0.00067642047390907
 748    -0.00062259907507064
 749    0.0010645602270863
 750    -6.4873286395138e-05
 751    -8.9669112533736e-05
 752    -3.7073160072989e-05
 753    -3.2501691322493e-05
 754    -0.00012893726318278
 755    0.0022491617434855
 756    0.00018498006213363
 757    0.00053185045785728
 758    -0.00015071109989706
 759    0.00029291333227876
 760     0.001737819474942
 761    -0.0031451899442648
 762    -8.7506832251993e-05
 763     5.93400821148e-05
 764    -0.00016076421880993
 765    0.0013918141550769
 766    -0.001540442298689
 767    -0.00022388673555749
 768    -0.00028740714135272
 769    9.653215105902e-05
 770    0.00075951511901736
 771    -0.0019183068561754
 772    -7.7659930427131e-05
 773    -0.00012021656094933
 774    -7.4013747737087e-05
 775    -0.00016880209116605
 776    -0.0033158747547168
 777    -9.5782303443415e-05
 778    3.9380386853548e-05
 779    -0.00015837759710968
 780    0.0027904218425642
 781     0.001058510516354
 782    0.00012912930562681
 783    7.5086734555585e-05
 784    0.00039501116030126
 785    0.00012518558544771
 786    -0.00035418867333216
 787    -0.00043647086211805
 788    7.6976549048502e-05
 789     0.001456515037112
 790    -0.0006388506518774
 791    0.00077292130677804
 792    0.0015965464857033
 793    -0.0024525873436094
 794    0.00018140560352939
 795    -3.9764360410865e-05
 796    9.4815662367797e-05
 797    4.9588298117979e-05
 798    1.3072608267722e-05
 799    6.9757225842665e-05
 800    -0.00014084478708015
 801    0.0022414033951201
 802    -1.6267214755859e-05
 803    -0.0013048557006479
 804    0.00064765305473805
 805    -2.7710804444918e-05
 806    0.0013847579478977
 807    -0.00013005066697042
 808    -5.9496970137986e-05
 809    3.8261002991765e-05
 810    -1.913579972902e-05
 811    -3.1366014453118e-06
 812    -5.9930183359558e-05
 813    5.3417600351679e-05
 814    -9.9740246624926e-05
 815    7.3844057160443e-05
 816    -6.4678408908553e-05
 817    8.1795563879413e-05
 818    0.00046372653048872
 819    -0.0032221872357684
 820    -8.4923552790594e-05
 821    4.8576309391623e-05
 822    8.6660729415202e-05
 823    -0.00098950491761458
 824    0.00065378288344444
 825    1.0183992817099e-05
 826    1.0217128060764e-05
 827    2.1278772347416e-07
 828    0.0011713894040839
 829    -0.0046424546569907
 830    -1.6585588416857e-05
 831    -0.00011332823783286
 832    -0.00033659464707187
 833    0.0003892331204148
 834    0.00073083432919665
 835    7.0113442263616e-05
 836    -9.2197812129865e-05
 837    8.2160418539053e-05
 838    -0.0017160632955745
 839    0.0044604216642798
 840    4.1471417736813e-05
 841    0.00015580154723385
 842    5.0925067143312e-05
 843    0.0001767863000428
 844    -0.00086906453362794
 845    -0.0027257868691201
 846      0.00023934713104
 847    -0.00012425954943966
 848    0.00021891919412294
 849    0.00042281778918752
 850    0.00021579741952212
 851    -8.9348585426676e-05
 852    -8.1912958561357e-06
 853    -1.135677080334e-05
 854    2.2755465188011e-06
 855    -2.4827036540515e-05
 856    -2.4204067995523e-06
 857    -0.00041532414974594
 858    -0.0011915474402665
 859    -0.002220636609216
 860    -0.0022754775215798
 861    -0.00049246494652829
 862    -0.00022859437275972
 863    0.0044335877087244
 864    -0.00054437805598514
 865     0.001143509038399
 866      7.4151324476e-05
 867    -3.1996026455395e-05
 868    -0.00015768882844786
 869    -2.1664794568799e-05
 870    -2.8288895172481e-05
 871    -0.0023841034637451
 872     0.004234847377684
 873    0.0003506636334389
 874    -6.7641831347801e-05
 875    0.00023245054477776
 876    -0.0016266901975376
 877      0.00390572580827
 878    0.00033111348061678
 879    -0.00017334894080304
 880    8.3214311942468e-05
 881    -0.00067284163092637
 882    -0.0045616891859837
 883    -2.6501039856784e-05
 884    -0.00016092881048615
 885    0.00014716899348137
 886    -0.00013277888355081
 887    0.0016762867231659
 888    0.0001179070720139
 889    3.4018195674036e-05
 890    -4.7905598892799e-05
 891    -0.00016341236398771
 892    0.00012225767623849
 893    2.1810719623655e-05
 894    -6.961662555389e-05
 895    4.6963466149354e-05
 896    -0.00015432114242069
 897    0.00067331230979766
 898    -2.8144513075195e-06
 899    4.1988658406147e-07
 900    8.1645920987491e-05
 901    -0.0015396005683664
 902    0.0049405971893857
 903     0.015943526720775
 904    -0.00089776664030167
 905    -0.0025730961405609
 906    -0.00094487597696534
 907    0.00019328103765539
 908    0.0097937922512635
 909    -0.0029610649671344
 910    -0.00015903864042037
 911    3.0923545398531e-05
 912    0.00010491041398016
 913    8.7789364995054e-05
 914    0.00012580362065145
 915    0.0032361990246043
 916    0.0091664942486116
 917     0.015788704087495
 918    0.0057832794037764
 919    0.0026105223166231
 920    -0.0013807377192317
 921    -0.0043500806253691
 922    -0.00044231322473383
 923    0.0078256079120789
 924    -0.00037415671254401
 925    0.00028010012667211
 926    -7.2283678189151e-05
 927    -0.00018575809429458
 928    0.00065496939258673
 929    0.0054032607716929
 930     -0.01685561880024
 931    9.704157716311e-05
 932    0.00083556084343746
 933    -0.00095965630528685
 934     0.019574136406634
 935    -0.0073771083905422
 936    -0.0021908537888794
 937    -0.0016512445523197
 938    0.0019174416940756
 939    0.0017304582335737
 940    -0.0087722570746403
 941    0.00056409017615277
 942    -0.00071815250908712
 943    0.00046588703776122
 944    0.0036792228871312
 945    -0.011230176593551
 946    -8.2362844741487e-05
 947    -0.00055365419745562
 948    -0.00040607951594411
 949    0.0061181442321285
 950    -0.00047497722454132
 951    -0.00039700551323336
 952    -0.00014736407450197
 953    0.00044536515608277
 954    -0.0031271312224381
 955    -0.0077595809457441
 956    0.00031522846944744
 957    0.00014420004212112
 958    0.00022370092343535
 959    0.00058960302578116
 960    -0.00060496492804627
 961       -0.011683949483
 962    0.0011733155221929
 963    0.0022197996021989
 964    -0.0011168938612531
 965    0.0033146536207191
 966    0.0094763059087676
 967    -0.001956751827343
 968    0.00034185748130189
 969    0.00024257643933526
 970    -0.00011881860526522
 971    0.00021861284136365
 972    -9.7919161491529e-05
 973    -0.00028049188423524
 974    -0.00035767985436705
 975    -0.0045525780727275
 976    -0.00058566891940821
 977    -0.0035914741124357
 978    0.0076094628577499
 979    0.00076753068875998
 980    -0.00044201013197421
 981    -0.010421582692268
 982    -0.00016586161447797
 983    -7.5868927931713e-05
 984    9.9108894684271e-05
 985    -0.00015049156928889
 986    0.00018411844849944
 987    -0.0015077957313731
 988    -0.0040003392761531
 989    0.00023195479801736
 990    -0.0001282784382803
 991     0.000384873294992
 992    -0.0031144453983364
 993     0.018234317493857
 994    -0.00046100379389339
 995    -0.00050427182389537
 996    -0.00021360100093642
 997     0.004600851457135
 998    -0.0035052130392034
 999    0.00026579387463685
 1000    -0.00015529291690926
 1001    9.8560266997149e-06
 1002    -0.0031711291134558
 1003     0.020275423458221
 1004    -0.00019807757514343
 1005    0.00078191222791417
 1006    0.00011961557375009
 1007    0.00050417895924871
 1008    0.00021566017199634
 1009    0.00013247808585897
 1010    -0.00019272092542459
 1011    0.00018182042131209
 1012    0.0011218903693424
 1013    -0.0061413604487782
 1014    0.00015885320560036
 1015    -0.00018566239089688
 1016    -0.0004303855096359
 1017    -0.0015030512163033
 1018    0.0069497121175507
 1019     0.023718267343695
 1020    0.0017454826420588
 1021    -0.0018881470470265
 1022    0.0013948858649456
 1023    0.0021348075151106
 1024    1.566291405172e-05
 1025    -0.00037689258459512
 1026    -0.00011049193498773
 1027    4.6959205536039e-05
 1028    -2.1195785305662e-05
 1029    3.4150917793884e-05
 1030    -0.00011256837750232
 1031    0.0035964216444834
 1032     0.010372750313555
 1033     0.020162702615256
 1034    -0.011276541205973
 1035    0.0034704140997932
 1036    -0.00017436655210318
 1037     0.024354137247096
 1038    -0.014153546625188
 1039    0.0077495985875351
 1040    0.00011812621560737
 1041    -0.00030956946163535
 1042    0.00070667340157604
 1043    0.00038119854002843
 1044    0.00018209769114582
 1045     0.014780725074527
 1046    -0.024514832428903
 1047     0.002336971104681
 1048    -0.002024044431932
 1049    0.00031836220175889
 1050     0.013463803218174
 1051    -0.022075682787327
 1052    0.0024044182105767
 1053    -0.00081267919577224
 1054    0.0018107741403284
 1055    0.0095763248618496
 1056     0.010461246787558
 1057    9.5275426035143e-05
 1058    -0.0020850450060807
 1059    0.0016846441608866
 1060    0.00087899293632107
 1061    -0.010221593592557
 1062    0.00074846699828253
 1063    0.00015710762639353
 1064    -0.00010299561360107
 1065    0.0014546210713636
 1066    -0.0046483720314179
 1067    6.6835207082894e-05
 1068    -0.00018207709709716
 1069    0.0005641485173696
 1070    0.0009035540617561
 1071    -0.0057889679448879
 1072    -8.2909417702271e-05
 1073    -0.00062628794896064
 1074    -6.1570876253281e-05
 Sym= A
 Ene=               0
 Spin= Alpha
 Occup=    0.00000
   1     0.019193762340765
   2    0.0030098324888024
   3    -0.030719348886754
   4    -0.021485866567584
   5      -0.1335458134454
   6     0.017813237304797
   7     0.029557078244449
   8     -0.14151517000536
   9     0.019163059239048
  10     0.031420362238165
  11      0.42151565747907
  12    -0.057830405223068
  13    -0.090657532008634
  14       0.6234901871654
  15    -0.078563699591289
  16      -0.1468851963696
  17    0.0082701780041946
  18    0.0041884338409443
  19    -0.003940046116416
  20     -0.01706105038771
  21    0.0047585686265633
  22    -0.0042917739901445
  23    0.0014443187255133
  24    -1.9315563919503e-05
  25     0.010041905266776
  26    -0.00070051650043442
  27     0.035038353084461
  28     0.077633018590082
  29     -0.18723297930474
  30     -0.10280861770564
  31    -0.050470947717655
  32    -0.0086248828919976
  33     -0.01095789054844
  34     -0.06847929091107
  35     -0.01085946432944
  36    -0.013656709889744
  37      0.19187874720995
  38      0.03279970055878
  39     0.040550396129539
  40      0.23188117269764
  41     0.030841101409552
  42     0.041147588014914
  43    0.0037141048634629
  44    -0.0006549245581856
  45    0.00040569280871274
  46    -0.0065168476993279
  47    -0.00085236885243052
  48    0.0055379439967611
  49    -0.0027995085919579
  50    -0.0016651729323722
  51    -0.0095619734216783
  52    -0.0020190601081254
  53    -0.0057583475716628
  54    -0.0098622278626277
  55      0.02401835572913
  56     0.013983566039951
  57     0.015915454021758
  58    0.0044013326649143
  59    -0.0031805041131299
  60     0.019642146303151
  61    0.0062722685865373
  62    -0.0036877120653872
  63    -0.060977169103476
  64    -0.015948932788232
  65       0.0122849349595
  66    -0.052253135079083
  67    -0.024566344229031
  68    0.0079942834019882
  69    -0.0010676950616411
  70    -0.00039910409206855
  71    -0.00071804750782788
  72    -0.0007032205570201
  73      0.00434698798247
  74    -0.00052837439144226
  75    0.0024833129688892
  76    -0.0013973918441944
  77    6.0756422228868e-05
  78    0.0079703160260324
  79    -0.010736143179796
  80    -0.018294553737606
  81     0.045065784867341
  82     0.028329572412937
  83     0.018775759847736
  84    -0.00085958409522647
  85    0.0084361263222128
  86     0.023156336143125
  87    -0.00087819215430211
  88     0.012112934032006
  89    -0.071308292364955
  90    0.0039315464153091
  91    -0.031258889922011
  92    -0.059079225059753
  93    -0.0011187699675727
  94    -0.046452872640465
  95    0.0011141600451697
  96    0.0051512082989836
  97    -7.8254212247987e-05
  98    0.0011150306837179
  99    0.00061334753533861
 100    0.0030439047998179
 101    0.0075582992055451
 102    -0.00038537396243459
 103    -0.00088912089476209
 104    0.00071737898919581
 105    -0.051920351415002
 106     -0.10582025640941
 107      0.25270130293979
 108      0.15780812663375
 109    -0.060079476609241
 110    0.0025339708308064
 111    0.00043892440231461
 112    -0.083085423833714
 113    0.0030601772499632
 114    0.0016024780016742
 115      0.23227354819849
 116    -0.010154082927686
 117    -0.00031404644352498
 118      0.25644108616843
 119    -0.0049358133162143
 120     -0.01325728515149
 121    -0.0048358469488957
 122    0.0014035439990454
 123    0.00072733792889433
 124    0.0082621154141511
 125    -0.0019277867385259
 126    -0.009864731881457
 127    -0.0040558910268099
 128    -0.0025868817408836
 129     0.016844384305518
 130    0.0018159191455229
 131    0.0069037896069176
 132     0.017257010725258
 133     -0.04166998259789
 134    -0.022032658660458
 135     0.020204417574811
 136     0.011406167461383
 137    -0.0072236882911333
 138      0.02461740835779
 139     0.015164225589042
 140    -0.0093481714169623
 141    -0.073929416519054
 142    -0.045668563633922
 143     0.026294621331717
 144    -0.065601948690802
 145    -0.038835871759542
 146     0.027874081385314
 147    6.8099960895107e-05
 148    0.00050887258577949
 149    0.0017572302015281
 150    0.0028601110308118
 151    -0.0043108297180012
 152    0.0011423311956748
 153    0.0010118525159629
 154    0.0031633147786339
 155     0.002910458417544
 156    -0.0095613490466433
 157     0.012091324964814
 158     0.026354718906088
 159    -0.064575506931253
 160    -0.038230550470946
 161      0.01766430462419
 162    -0.0051354429087205
 163     0.014313135501114
 164     0.021565443790728
 165    -0.0070747455574287
 166     0.019539105176026
 167    -0.065547606360578
 168     0.019749649144483
 169    -0.058231229862383
 170    -0.057034476479108
 171      0.02202566113588
 172    -0.058208686815989
 173    -0.0028147903302638
 174    -0.0040137159269469
 175    0.0019273669188611
 176    0.0008429182920389
 177    0.0013974901375465
 178    -0.0058567304819873
 179    -0.0088652084376388
 180    0.0017602490123242
 181    0.0012392430596047
 182    -0.00058183960920683
 183     0.056607478412969
 184     0.012089212836575
 185    -0.088610766716977
 186     -0.12336862277957
 187    -0.00039586446476797
 188     0.021715931518507
 189     0.027380573232394
 190    -0.00014889947992954
 191     0.023154037031616
 192     0.029129665194651
 193    0.0014193025564271
 194    -0.069250503997984
 195    -0.086714632618522
 196    -0.0047200621080319
 197     -0.10714714853764
 198     -0.13531933069644
 199     0.018784142560382
 200    -0.00071213329442942
 201    0.0014192578067627
 202    -0.031514729782142
 203    2.5911088489021e-05
 204     -0.00715726551761
 205    0.00022677715744267
 206    0.0006897419889786
 207     0.011132024178459
 208    0.00016443073820419
 209     0.035266579251882
 210     0.078751520007495
 211      -0.1886663940628
 212     -0.10638121149289
 213     0.051321273624815
 214    -0.0094861349195987
 215    -0.012697972542794
 216     0.069537538185515
 217    -0.011986708190167
 218    -0.016320092728746
 219     -0.19564200308975
 220     0.035113500855377
 221     0.048220257149091
 222     -0.23603220717138
 223     0.037845312804844
 224     0.050111776828448
 225     0.004197566845055
 226    0.0017379187092714
 227    0.00022724953743767
 228    -0.0066848337531497
 229    0.00099459390371869
 230    0.0044366511974924
 231    0.0031645900079905
 232    -0.0017691298625924
 233    -0.0099105528589881
 234    0.0021251645925765
 235    -0.0049253943277236
 236    -0.011362973264299
 237     0.022857373863571
 238     0.033987074473252
 239    -0.00032442976469546
 240     0.006346492916611
 241    -0.0045299754751873
 242    -0.00042399452395364
 243    0.0090865553629355
 244    -0.0060865246308219
 245    0.00062437744049736
 246    -0.024106586817414
 247     0.016871886836241
 248    0.0038258200996318
 249    -0.043169109258181
 250     0.021207003087125
 251    -0.00060374072794665
 252    9.9876103831144e-05
 253    -0.0015253650451068
 254    -0.0043617290933838
 255    -8.4197913405158e-05
 256    -0.00056745555795606
 257    -0.00010304455966647
 258    -0.0022957862253846
 259    0.0016665620020818
 260    -0.00025356999705345
 261    -0.0065917081248836
 262    -0.014802886634193
 263     0.030424865740168
 264     0.041022933308422
 265    0.00048688026724408
 266    -0.0041872512735654
 267    0.0079634639067293
 268    0.00061407557242886
 269    -0.0055902446707795
 270     0.011355787070674
 271    -0.0013774330694511
 272     0.015447615768673
 273    -0.030721851989961
 274    -0.0029907122697772
 275     0.020366135882792
 276    -0.050664946460401
 277    0.0044579580686057
 278    0.00041838577575282
 279    -0.001443436037322
 280    -0.0016968078741542
 281    -8.8146125944767e-05
 282    -0.00076218497158755
 283    -0.00028404261801848
 284    -0.0021085694186651
 285    0.0013442731720856
 286    2.1467964558932e-05
 287    0.0073772608836194
 288     0.015465292595153
 289    -0.039292888860494
 290    -0.013141223438135
 291    0.00018372290014274
 292    0.0072091948114862
 293    -0.002122455013633
 294    0.00013179866184774
 295    0.0099537503271665
 296    -0.0030808405686673
 297    -0.00051057714527309
 298    -0.030837291880487
 299     0.007895430262081
 300    0.00024975169337297
 301    -0.018737379447318
 302     0.011768946663451
 303    0.00049179662512022
 304    -3.8140246525686e-05
 305    0.00067725449758822
 306    -0.00079407567715261
 307    -5.2602928695506e-05
 308    0.0011069474268839
 309    -7.2688148831945e-05
 310    0.0016087506324861
 311    0.0038109150578649
 312    0.00017980401399972
 313    0.0094062247765443
 314      0.01955366219393
 315     -0.04979513818381
 316    -0.017830723110158
 317    0.00014979887771061
 318    -0.001391266639802
 319    0.0092140341714697
 320    -0.00018786574938439
 321    -0.0022466939772957
 322     0.012569439372181
 323    -0.00073353205443741
 324    0.0054126235908837
 325    -0.038808604258961
 326    0.0039582531766076
 327    0.0087432830144534
 328    -0.026047920252582
 329    0.00025131909585011
 330    -0.00011676405947395
 331    0.00056154432199654
 332    -0.00092023050918418
 333    0.00016801630574148
 334    -0.0046914047311648
 335    0.00045328678563466
 336    0.0010710787934641
 337    0.0012385660175907
 338    -0.00062758294040288
 339    0.0069010898020426
 340    0.0010470090258711
 341    -0.015176543546189
 342     0.011634271858524
 343      0.12980322796085
 344     0.041097038692214
 345     0.059187682523828
 346      0.13726563725767
 347     0.043389341632644
 348     0.062608444858604
 349     -0.41134542925427
 350     -0.12717705775963
 351     -0.18926459133366
 352     -0.59512264033823
 353     -0.19589313683572
 354     -0.26301206827044
 355     0.011114566651633
 356    -0.0039059569750423
 357    -0.0070040845592004
 358    -0.0066827788237141
 359    -0.005774183616486
 360    -0.0075781476017755
 361    0.00053006160691184
 362    -0.00016247443472885
 363    0.0050498939366163
 364    -0.00021203010111641
 365    -0.050185059627006
 366     -0.10090170204262
 367      0.24369394676201
 368      0.14248347581765
 369     0.058657253791411
 370    0.0036504439245031
 371    0.00032044226469508
 372      0.08084571598348
 373    0.0061858939550473
 374    0.00083646069489785
 375     -0.22608033460552
 376    -0.012278124121882
 377    -0.002205745255478
 378      -0.2445132465377
 379     -0.02836714497166
 380    -0.0017319907561662
 381    -0.004679261830561
 382    0.0011780169661678
 383    0.00077160650298226
 384    0.0083108224977547
 385    -0.00057028392090238
 386    -0.0093661654859003
 387    -0.0016454041107507
 388    -0.0029870334399702
 389     0.014956354084244
 390    0.0059693636038965
 391    -0.014306260865826
 392    -0.026772966541891
 393      0.06813418868915
 394     0.033241056982433
 395     -0.01869414807741
 396     0.012646071586879
 397    -0.0055182690867489
 398    -0.022985591571977
 399     0.018035184357132
 400    -0.0066251932358561
 401     0.071931150545988
 402    -0.049276453623853
 403     0.021713038103027
 404     0.056480099453249
 405    -0.059997287311133
 406     0.013617973604464
 407    -0.0020840057463858
 408    -0.0001744809723295
 409    -0.0014526071850999
 410    -0.00095805727839138
 411    -0.0053712578635297
 412    -0.0016517417951438
 413    -0.0012503420918058
 414    -0.0021351876744255
 415    -0.0042843585918277
 416    -0.0070811521110264
 417    -0.017951496666326
 418    -0.035494581266471
 419     0.087216163590866
 420      0.04629985780602
 421     -0.01657516449353
 422    -0.0032321172514787
 423     0.017168363579128
 424    -0.020466273156461
 425    -0.0033773986456816
 426     0.024190605490358
 427     0.063929165107165
 428     0.012944717666918
 429    -0.067562374156753
 430     0.054268939444676
 431    0.0040792269297539
 432    -0.078164381853209
 433    0.0039307478350339
 434    -0.0048487086244181
 435    -0.0010005105457528
 436    0.00057121702458872
 437    0.00079985862934467
 438    0.0034362274953464
 439    -0.0076779204770584
 440    -0.0006638108010434
 441    0.00054025183423974
 442    -0.0032272967197189
 443     0.013949624066876
 444     0.029259429187416
 445    -0.069284297135015
 446     -0.04868464239383
 447     -0.01582992025608
 448     0.015149656222317
 449    -0.010890013974191
 450    -0.019405363229703
 451     0.021189090601304
 452    -0.013826495733275
 453     0.058960077902749
 454    -0.060809201733329
 455     0.040604461501099
 456     0.051411580844355
 457    -0.069815871852995
 458     0.039881169738976
 459    0.00072772993294202
 460    -0.00034597109989698
 461    0.0032989658426141
 462    0.0035087645096503
 463     0.003481796823666
 464    0.0015996387383019
 465    -0.00064635560514072
 466    0.0045594780031355
 467     0.004747935347881
 468    0.0086852184476655
 469     0.021001223441481
 470     0.046370296188714
 471     -0.10901610594669
 472    -0.069811712132663
 473    -0.017342372339825
 474    -0.011323117714648
 475      0.02671016230568
 476    -0.021460153645358
 477    -0.015018620714118
 478     0.036515930180305
 479      0.06350817410961
 480     0.041398769158915
 481     -0.10509577534441
 482     0.059138213206572
 483     0.045711993574809
 484     -0.10893856709789
 485    -0.0054646472649528
 486    0.0031602012123036
 487    0.0029698196971512
 488    0.0014212656268477
 489    2.3988834937719e-06
 490    -0.0072050643203701
 491    0.0099637888609235
 492    0.0049186139223914
 493    0.00036254803225333
 494    -0.001355437680667
 495    0.00086818701419122
 496    -0.0012487594806755
 497    -0.018079153200213
 498    0.0026760273081155
 499    -0.001453339796795
 500    -0.00029621724946496
 501    0.0056092978840732
 502    -0.0089901434135467
 503    -0.006984697424535
 504    -0.00016095966570982
 505    -0.00010645383286208
 506    0.00024846895647274
 507    0.00031185006517185
 508    -7.8620891470206e-05
 509    -0.0036706916082114
 510    -0.013371481569557
 511    0.0060929698611238
 512    -0.00093805659380478
 513     0.005310971132537
 514    0.0048683970712454
 515    -0.010254451539508
 516    0.0043363731832089
 517    0.0042230115561965
 518    -4.6763952480815e-05
 519    0.00040547128258255
 520    0.00023959813113897
 521    7.8145177383644e-05
 522    0.00039811470091447
 523    -0.0049752764327513
 524     0.013649591549605
 525    -0.00053416008040193
 526    -0.00044622530487969
 527    0.00017011245944912
 528    -0.026584439550261
 529    -0.016357467560246
 530    0.00081160782260279
 531    4.138269722938e-05
 532    9.739353611514e-06
 533    -0.0040760228616539
 534     0.010849980870109
 535    -0.00051609718533189
 536    0.00010513608424519
 537    -0.00046010710554154
 538    -0.0037143887244831
 539     0.010437184600615
 540    0.00010046130701514
 541    0.00014514791874907
 542    0.00024518682247407
 543    -0.0033311573422972
 544    0.0083021661325396
 545    5.5826155450789e-05
 546    0.00014256218130621
 547    2.2487714839833e-05
 548    -0.0015182844170632
 549    -0.0049902365583041
 550    0.00010304570090481
 551    -0.00038504663594746
 552    -0.0003845530651566
 553    0.00077296447842004
 554    -0.0039329961063494
 555    -0.0011622752737613
 556    0.00085842802061496
 557    -0.0008073110839847
 558    0.0027588569170392
 559    -0.0027451978399116
 560    0.0017727233220297
 561    -0.00058190821878014
 562    -0.00014707812069415
 563    -0.00031809233287559
 564    3.6295370742335e-05
 565    5.3303362909849e-06
 566    -8.7412007609445e-05
 567    -0.00084029691945738
 568    -0.0034933664797344
 569    0.00080639473207869
 570    0.0010941053031055
 571    0.0021246822380219
 572    -0.0031800233938015
 573    -0.0018786532132733
 574    -0.003760900088928
 575    -0.0013208151116197
 576    -0.00017090748333296
 577    -0.00039992188942132
 578    -0.000165874000332
 579    -4.0737542560934e-05
 580    0.00014009300708594
 581    -0.010136579063358
 582    -0.0043568351654368
 583    0.00047673601105098
 584    -0.0007319908878777
 585    0.0011834964794945
 586    0.0015223031054478
 587    -0.0015306854568962
 588    -2.6345410233651e-06
 589    -6.4868558298215e-05
 590    -0.00034975873165047
 591    -0.00079617549165941
 592    0.0038779171606679
 593    0.0005135507697501
 594    0.00035656648807163
 595    -0.00030319512274598
 596    -0.0017289778888497
 597    0.0019151318975716
 598    0.00034241921567488
 599    -7.0504479045436e-05
 600    0.00045688357253551
 601    0.0019626460029452
 602    0.00064411887170691
 603    -0.00019036727812125
 604    -0.00045538870230676
 605    -0.00025582341699774
 606    -0.0022749273722689
 607    0.0042531524308014
 608    0.00012455273468204
 609    6.4300087091089e-05
 610    0.00012490441186287
 611    0.0010613393639158
 612    -0.0040092898865211
 613    -0.0087569865183762
 614    -0.0010662892425259
 615    -0.0012472078500472
 616    0.00084624730777077
 617    0.0031678141909515
 618    0.0055662140329568
 619    0.0042944430283525
 620    0.00028316674974158
 621    0.00037524073851071
 622    0.00038112924088902
 623    -0.00010034090830254
 624    -5.4876750718581e-05
 625    -0.0041140827102187
 626    -0.012722626175372
 627    -0.010810581893677
 628    0.0017683424926085
 629    0.0053478453278118
 630    0.0058500292639804
 631    -0.005837574140224
 632    -0.0074458799945269
 633    -0.00077301689285103
 634    0.00053024796962677
 635    -0.00097628326027961
 636    5.2063846134825e-05
 637    0.0008499338472513
 638    0.00038789251636917
 639    -0.0083522154236628
 640    0.0077684260698009
 641    6.049624293532e-05
 642    0.00015386276471165
 643    0.0008153949217107
 644    -0.014463215641495
 645    0.00096373429425312
 646    -0.0014560475013037
 647    -0.0018863792674814
 648    -0.0018060509162845
 649    -0.016146678116443
 650    0.0052625036332767
 651    -0.0018453104539854
 652    -0.0012375051429807
 653    -0.0022316745316158
 654    -0.00029521643996926
 655    0.0061567318008508
 656    -0.00025901025609177
 657    0.0002393093368827
 658    -0.00022589931527444
 659    -0.0058716565666814
 660    0.0062550944341577
 661    7.8659688257952e-05
 662    -0.0002944465527079
 663    -0.00041296373099805
 664    -0.0017917321196101
 665    0.0060482440639904
 666    -0.00011024041438626
 667    -0.00053382744753341
 668    -3.4610914337231e-05
 669    0.00095956217316595
 670    -0.0042885230094614
 671    -0.0024649363064987
 672    -0.0013625416486244
 673    -0.00098303843693969
 674    0.0028294210025229
 675    0.0037371236371949
 676    0.0028693680019421
 677    -7.8745331207149e-05
 678    -0.0001255983055011
 679    0.00026408085641328
 680    7.0059766250608e-05
 681    -2.014112316135e-05
 682    7.8177348489002e-05
 683    -0.0005303566348056
 684    -0.002367695992469
 685    0.00042128128777485
 686    -0.00080383483843843
 687    0.00073690661633814
 688    -0.0041384994523667
 689    0.0015239895388629
 690    -0.0020031861896728
 691    0.00095216141896226
 692    -9.2838568920067e-05
 693    0.00038519399823699
 694    -0.00013363078301148
 695    -4.3262710396934e-05
 696    -0.00019411229287334
 697    -0.0080930141203521
 698    -0.0030373807193024
 699    -0.00013923269285971
 700    -0.00072208458477424
 701    0.00098862250630338
 702    7.2051659914872e-05
 703    0.0023558093356951
 704    -0.00039511970493894
 705    0.00025454312810711
 706    -0.00034086500151476
 707    0.0021363911546789
 708    -0.0035210746630049
 709    -1.526423637643e-05
 710    -0.00012931790648799
 711    -0.00028212966633367
 712    -0.002350855771763
 713    0.0064444266286189
 714    -3.6437122744678e-05
 715    4.6875443839092e-05
 716    0.00023211486115652
 717    0.0020103038958627
 718    0.0011757329885179
 719    0.00018160025028048
 720    -0.00046471310685003
 721    -0.00028771608260674
 722    -0.0018692707380228
 723    0.0028963405912394
 724    -0.00037950811778514
 725    -0.00010771444039415
 726    0.00036116147084743
 727    0.0012999613083631
 728    -0.005604920712584
 729    -0.0037868561188677
 730    -0.0013800097853785
 731    0.0033036728372761
 732    -0.00085249953348624
 733    0.0026013226496442
 734    -0.0021663060599453
 735    0.0027783814622937
 736    3.7660430398529e-05
 737    6.0028405571062e-05
 738    2.563411037771e-05
 739    9.1034401673684e-05
 740    0.00030575588898577
 741    -0.001104483538755
 742    -0.0040012769074874
 743    -0.0021722312287293
 744    -0.00040200954228686
 745    -0.0047193710386345
 746    0.0012972707134037
 747    0.00020232947162241
 748    0.0018153923257627
 749    -0.0039301175444136
 750    0.00021469655606084
 751    -0.00019527199883917
 752    -0.00012933758854579
 753    0.00014506556487503
 754    0.00055835962392621
 755    -0.011752875904785
 756    0.0012879601539829
 757    -0.00064774933995534
 758    0.0015414548445187
 759    -0.00094994727293858
 760    0.0014443826424049
 761    -0.0020281170245567
 762    3.4184130165023e-05
 763    -0.00045758435931046
 764    -4.6542951364993e-05
 765    -0.00031893882460164
 766    0.0028557759968527
 767    -0.00041338483100678
 768    -0.00026748647944747
 769    0.00030639446985773
 770    -0.0024791329821653
 771    0.0049549530699581
 772    -0.00036505983868261
 773    0.00048016768175194
 774    1.4238507908824e-05
 775    0.0023292336496476
 776    0.0022124440122233
 777    0.00023197063195323
 778    -0.0002551013752191
 779    -0.000472926523799
 780    -0.0032899953852794
 781    0.0037221378260154
 782    -0.00018893782695348
 783    0.00019708982773201
 784    -5.9851748821332e-05
 785    0.00073557473561132
 786    -0.0021321824147578
 787    0.0053785948450943
 788    -0.0023525611320336
 789    0.0013919446078105
 790    0.0017553204227761
 791    -0.0053279340508312
 792    -0.0021466378434341
 793    -0.0033600309633624
 794    1.247181784797e-05
 795    -7.9555738215564e-05
 796    0.00021400780228374
 797    -0.00016235164223349
 798    -7.2338784634214e-05
 799     0.001417271356674
 800    0.0025846611838027
 801     0.012337766183628
 802    -0.0019534485115163
 803    0.00090798934736431
 804    0.00077609654556932
 805    -0.001263682745449
 806    0.0010056601365521
 807    -0.00023949370978533
 808    -8.8634352398388e-05
 809    -4.1533383262302e-05
 810    1.5882849775098e-05
 811    0.00011263705885282
 812    -2.4440599839972e-05
 813    0.0021462200478056
 814    -0.0023258963538297
 815    0.00013081740494151
 816    0.00028259802268339
 817    -2.2349448938998e-06
 818    -0.00040567522115536
 819    -0.0048222023090673
 820    0.00014511719487164
 821    -2.5586146699482e-05
 822    -3.1918247286427e-05
 823    -0.0013349752415652
 824    -0.0033241400881021
 825    7.9511534326806e-05
 826    -6.9211927018827e-05
 827    0.00016983555476269
 828    -0.00026266328016796
 829    -0.0071067509111847
 830    -0.00035800497790822
 831    -0.00060184035757793
 832    -0.00084394059869471
 833    0.0030672648017785
 834    -0.0010449292468368
 835    0.00032061330145789
 836    0.00026413316830975
 837    0.00047934916079578
 838    0.0014705597655302
 839    -0.0047117068689897
 840    -0.00011594810222045
 841    -0.00069971320719269
 842    -0.00064679934748063
 843    -0.00076926293464882
 844    0.0034289093153122
 845     0.014737819507692
 846    -0.00055296833229563
 847    0.0010086496596851
 848    -0.00071169064159501
 849    0.0008342469434495
 850    0.0015429291580605
 851    -0.00063393507220323
 852    6.4696471379206e-05
 853    8.6476464134163e-05
 854    -3.8538994880969e-05
 855    -7.2066687899203e-05
 856    -1.3729464271507e-05
 857    0.0023986397603777
 858    0.0064066838172913
 859     0.014666767127217
 860    -0.0021066402437352
 861    -0.0065636526239013
 862    0.0037036197052093
 863    0.0011272915349388
 864     0.014523944800104
 865    -0.012290630456824
 866    -0.00015592534581092
 867    -0.00051726674835411
 868    4.6377327005292e-05
 869    -6.2372405612398e-05
 870    7.5004882320955e-05
 871    0.0038822955333583
 872      0.00650268075423
 873    -0.00070503627311235
 874    1.2938505423616e-06
 875    -0.00081901715651247
 876    0.0079806238330401
 877    -0.0077600668985615
 878    -0.0010347919288807
 879    0.0016999514679701
 880    -0.00052106124339985
 881    0.0071592113348728
 882    -0.024997872149857
 883    -8.9344246964843e-05
 884    0.0010868810684381
 885    -0.0012298524994062
 886    0.00099206958486962
 887    -0.0020617985075695
 888    -0.00017359923047334
 889    9.5579403217297e-05
 890    -0.00014730948211637
 891    0.00061623479612331
 892    -0.0062612872759786
 893    0.00011347272816181
 894    0.00039868018327856
 895    0.00019732326101009
 896    -3.0465388187941e-05
 897    -0.0035865935340384
 898    -2.0448489299409e-05
 899    -9.8097092468325e-05
 900    -0.00030124621815759
 901    0.00098843594868169
 902    -0.0043806696468223
 903    -0.0046999955346544
 904    0.00077063276778874
 905    0.0032786276393591
 906    -0.00079829831641176
 907    -0.0042438254600515
 908    -0.0010414562971161
 909     0.001958921273701
 910    0.00020567019935334
 911    -6.6163462303819e-05
 912    2.0880338355729e-05
 913    0.00010885733326178
 914    -0.00028697390793995
 915    -0.0010967113719138
 916    -0.0042376793297761
 917    -0.00050731722830952
 918    0.00040768974469505
 919    -0.0033835329896934
 920    0.0020535668328919
 921    -0.0026951871941842
 922    -0.0015602521566701
 923    -0.0046785290552579
 924    3.1038221229825e-05
 925    1.3169576352123e-05
 926    -0.00013964492074544
 927    8.9027577787448e-05
 928    -0.00042364615050061
 929     0.000815096439213
 930    7.6995579019177e-05
 931    -3.1580169336243e-05
 932    -0.0003547559176598
 933    9.9026796488575e-05
 934    -0.010979792231047
 935    -0.0078814844681055
 936    0.0005082735418946
 937    0.0011084213652115
 938    -0.00090067694806249
 939    -0.0013850306868981
 940    0.0077606498078229
 941     0.000344466276423
 942    -0.00011212396911561
 943    3.7508296155617e-05
 944    -0.0020189283572229
 945    0.0027405067947052
 946    0.0003660857851067
 947    0.00050483732077802
 948    -9.3531474337449e-05
 949    -0.0036223454351289
 950    0.0076603949430816
 951    7.7984147468889e-05
 952    0.00022056032838826
 953    -2.2521015973136e-05
 954    0.0022886513047963
 955     0.002058315792061
 956    -0.00022850942925201
 957    -0.0003165030125738
 958    -0.00046329138476609
 959    0.00070944081738243
 960    -0.0020811554617436
 961    0.0036041949856344
 962    0.0018970047145367
 963    0.0019231863872863
 964     0.001677820077986
 965    0.00098979452708697
 966    -0.0033817972390788
 967    -0.0020068042526665
 968    6.3999346624782e-05
 969    -0.00016447220698674
 970    0.00018736317143839
 971    -0.00015578657938475
 972    1.9252833276634e-05
 973    0.00081426565082519
 974    0.0010388904590699
 975    0.0086441032586309
 976    0.0012359734976362
 977    0.0005076379454383
 978    -0.00045267885092875
 979    -0.00093516810139905
 980    0.0017504846798188
 981    0.0012920489167331
 982    -8.1918549113765e-05
 983    -8.6234957226864e-06
 984    1.0961927964304e-05
 985    -3.1756254813501e-05
 986    5.973907669504e-05
 987    -0.0011467634405596
 988    -0.0022186395759373
 989    0.00010578441098823
 990    0.00049360166183922
 991    0.00049554783045668
 992    -0.00011918298062781
 993    -0.0039061611979503
 994    6.9229031311013e-05
 995    -0.00019228034965123
 996    -0.00015566971647241
 997    -0.0021375202843413
 998    -0.0024718890229433
 999    8.4645050699489e-06
 1000    0.00021172806463741
 1001    -0.00013284037303693
 1002    -0.00041818558342846
 1003    -0.0061754789501174
 1004    0.00045170356366909
 1005    -0.00090140125269104
 1006    -0.00066253165073994
 1007    0.0034909491893551
 1008    0.0010996704623266
 1009    -0.00036271795559715
 1010    0.00043216273631557
 1011     2.58262156912e-05
 1012    0.00090517243597487
 1013    0.00010949380232614
 1014    0.00016685790916442
 1015    -0.00067306000798087
 1016    -0.00046273804453775
 1017    -0.00068287690043921
 1018     0.002919363336988
 1019     0.012601929186175
 1020    0.00046438773570605
 1021    -0.00088197770305571
 1022    0.00082496640083822
 1023    -0.00053661390494059
 1024    -0.00065734922920358
 1025    0.0012352065653149
 1026    4.0363350216122e-05
 1027    3.5506907175493e-05
 1028    -6.5662383604368e-05
 1029    -9.0955419045507e-05
 1030    -6.2592696071708e-05
 1031    0.0018306350508344
 1032    0.0046706784371702
 1033     0.012882128430856
 1034    0.0040434957516221
 1035    0.0041196253969772
 1036    -0.0057873454622759
 1037    -0.0034875135261669
 1038     -0.01269416233762
 1039     0.012272214815238
 1040    4.5665247044693e-05
 1041    -0.0001840260974987
 1042    -0.00013020299271591
 1043    -4.5160913413379e-06
 1044    0.00047309946486347
 1045    0.0024427186359306
 1046    0.0056159652406324
 1047     0.000471549356481
 1048    -0.00084260772065059
 1049    -0.00017444316943756
 1050    0.0051574411324811
 1051    -0.0018781704568067
 1052    0.00058047242774735
 1053    -0.00028876583889451
 1054    0.0013239148871826
 1055    0.0068024460106082
 1056    -0.026294918598208
 1057    0.00016737199338366
 1058    -0.0012099004583348
 1059     0.001010039883191
 1060    0.00068417701155888
 1061    -0.0011102945159897
 1062    0.00012486066846475
 1063    -0.00017052108760999
 1064    0.00011035205635074
 1065    0.00037559395050718
 1066    -0.0056430405522295
 1067    -0.00012103107651927
 1068    0.00016005668976194
 1069    0.00033790103914931
 1070    9.3101387328869e-05
 1071    -0.0035200023672321
 1072    -3.7380836280199e-05
 1073    -0.00025911508850165
 1074    -9.6258623593445e-05
 Sym= A
 Ene=               0
 Spin= Alpha
 Occup=    0.00000
   1    -0.017789069789215
   2    -0.0045276791260727
   3     0.029343988502882
   4     0.036164972761561
   5     -0.10443956078862
   6    -0.00057330362462162
   7    -0.0036778476129263
   8     -0.11149087093538
   9    -0.00025999464838739
  10    -0.003555632609394
  11      0.34065292767414
  12    0.00015928646740013
  13     0.012861582956447
  14      0.53404785821175
  15    0.0061470009688792
  16    0.0089511064196286
  17    -0.0022173459825439
  18    0.0064018105577062
  19    -6.8202491868149e-07
  20    0.0034091577823487
  21    0.0068532134015148
  22    -0.00081710572505092
  23    0.0021237652968638
  24    -0.00017706944695559
  25    0.0011147174567368
  26    -0.00034040715560603
  27    -0.019854315443894
  28    -0.050485817848858
  29      0.11364778162238
  30     0.085209357010461
  31     -0.10093366184806
  32    0.0030418430676363
  33    0.0043906361865153
  34     -0.13623041422868
  35    0.0044337450855928
  36     0.006409293695302
  37      0.39785777988767
  38    -0.011052000285873
  39    -0.017079718279849
  40      0.44450038293795
  41    -0.018793949350579
  42    -0.022600809217122
  43    -0.00089808792784518
  44    -0.0020933928074994
  45    -2.449397705877e-05
  46     0.001283631869429
  47    -0.002388352279234
  48    -0.0064090619785732
  49    -0.0080254142028928
  50    0.0012437706373579
  51     0.012312596564327
  52    -0.0068430612742675
  53    -0.0012977007039315
  54    0.00081577688583955
  55    -0.00090602656494112
  56    -0.0065866771614395
  57    0.0085695134812982
  58    -0.0010816159291055
  59    -0.00030719113635817
  60     0.010908813059165
  61    -0.0016864159421088
  62    -0.00034293473295273
  63    -0.036549233662317
  64    0.0063771920775092
  65    0.00076196658349671
  66    -0.026788398206707
  67     0.006948552539794
  68    0.0019498174676966
  69    -0.00029583128124768
  70    -0.00011104649334783
  71    -0.00015992101288682
  72    0.0022819856081238
  73    0.0018250325728784
  74    0.00091630319335026
  75    0.0018402729863141
  76    0.00013806363129735
  77    -0.00048813014703573
  78    0.0079201079583677
  79    -0.00078851700463156
  80    0.0029805732263626
  81    -0.0056380062442655
  82    -0.0074453182983009
  83    0.0096182723037588
  84    -0.0006465726572453
  85    -0.0028081612187523
  86     0.012206911267624
  87    -0.00084477793509156
  88    -0.0037206312958874
  89    -0.040607575466525
  90    0.0026279256678465
  91     0.013154123440104
  92    -0.028977079528911
  93    0.0014971143867039
  94    0.0090681068230753
  95    -0.0023821787800054
  96    0.0022163147677383
  97    -0.00031185170957884
  98    0.0016693480235839
  99    0.00041222811470182
 100    0.00052047968147143
 101    0.0074592840246282
 102    1.3468333608616e-05
 103    -0.0014379903743305
 104    0.0007345172943059
 105    -0.039654700740938
 106    -0.083378773253701
 107      0.19804577654236
 108      0.12850438887221
 109    -0.042524986750065
 110    0.0044483698125986
 111    0.0048208890963172
 112    -0.059446276622643
 113    0.0052953800974584
 114    0.0068377022306659
 115      0.16963645040733
 116    -0.017040181495556
 117    -0.016834996210007
 118      0.18639581690996
 119    -0.011791898055576
 120    -0.025933466983991
 121    -0.0029854493390979
 122    5.0811484991332e-05
 123    0.00083174158560397
 124    0.0049097746002001
 125    -0.0019120138792931
 126    -0.008792171447875
 127    -0.0053381567716309
 128    -0.002140462984546
 129     0.015859663156951
 130    -0.00017659627055297
 131    0.0003212736535258
 132    0.0047082801031574
 133    -0.0094369644044403
 134    -0.011045177853022
 135     0.013699386355893
 136    0.0051638269758105
 137    -0.00048552192744484
 138     0.017066420233641
 139    0.0065803861199717
 140    -0.00087526931605596
 141     -0.05211388664207
 142     -0.02092703475556
 143    0.0015116237850312
 144    -0.047167766888877
 145    -0.019244848575736
 146    0.0053219799447826
 147    1.993955943005e-05
 148    0.00059878752661437
 149    0.00036642769717083
 150    0.0033219126993203
 151    -0.0028191240148619
 152    0.0010273562993774
 153    0.0011935989771096
 154    0.00017872111058492
 155    6.2363607823488e-05
 156    -0.0089112380411095
 157    -0.00012156520670758
 158    0.0021542955428654
 159    -0.0047732472719923
 160    -0.0086288654805107
 161      0.01266159394127
 162    1.9694962136632e-05
 163    0.0029003441021283
 164     0.016148477866772
 165    -0.00066122598226011
 166    0.0036023881197878
 167    -0.048831652553153
 168    7.2854273864882e-05
 169     -0.01214780052673
 170     -0.04617582128555
 171    0.0062033091752629
 172    -0.013604473795279
 173    -0.0021524499231445
 174     -0.00275799957799
 175    0.00044033256529571
 176    0.0012628850975746
 177    0.0012075069729647
 178    -0.00091583811451987
 179    -0.0089327742824446
 180    -4.1482457526544e-06
 181    -0.0001303841577893
 182    -0.00013945115850958
 183    -0.0034634344441222
 184    -0.0007038064393987
 185    0.0070905185070993
 186     0.002930659782969
 187     -0.15174865151881
 188     0.005454417290278
 189    -0.0017836792022976
 190     -0.16079407956262
 191    0.0057211222879538
 192    -0.0019571521968579
 193      0.50612808507064
 194      -0.0172689966581
 195     0.005916460578351
 196      0.79999678930268
 197    -0.025514909243517
 198    0.0086401509505594
 199    -0.00041464860541492
 200     0.014270436258377
 201    0.00015759238585315
 202    0.0021608710367803
 203     0.013374123758832
 204    0.00048964954149469
 205    -0.0016445585297303
 206    -7.6032136943554e-06
 207    -0.0017487862318313
 208    -0.002279867131997
 209     0.019424112002921
 210     0.048888605717746
 211       -0.113276127793
 212     -0.07550351228148
 213     -0.10300290851574
 214    -0.0047283503271575
 215    -0.0041713044793261
 216     -0.13883489174674
 217    -0.0065629457482196
 218    -0.005701580080309
 219      0.40700476254604
 220     0.018727560995596
 221     0.015661870864312
 222      0.45089753870064
 223     0.018659059442822
 224     0.019327834151296
 225    0.00086349574177396
 226    -0.0024853607104509
 227    0.00018497797811623
 228    -0.001570463749217
 229    -0.0021465610057188
 230    0.0064824707033588
 231    -0.0072700592751216
 232    -0.0010007841883356
 233    -0.010874086051836
 234    -0.0061381893538895
 235    -0.001654047386439
 236    -0.0042492903667698
 237     0.010384869723714
 238    0.0053508382606324
 239     0.015487402726032
 240    0.0020237453315601
 241    8.2720333218998e-05
 242     0.020002241327607
 243    0.0028953539250782
 244    3.7057632128236e-07
 245    -0.064025572468347
 246    -0.0088546864311347
 247    -0.00019109729336769
 248    -0.054330569526045
 249    -0.0078305777188084
 250    0.00044557576125921
 251    -0.00022328988277041
 252    -0.00017710563344905
 253    -8.3492504448669e-06
 254    -0.00043278751125402
 255    0.0039001555893117
 256    -2.5798449814625e-05
 257    -0.001324308045676
 258    -3.0200577536245e-05
 259    -0.00087330617393333
 260     0.012068671114259
 261    0.00098037868571116
 262    0.0027641088242624
 263    -0.0073025104012531
 264    -0.0026614823622441
 265     0.014819919216742
 266    -0.0004614520383186
 267    -0.0015287443449095
 268     0.019124717900948
 269    -0.00063315343847893
 270    -0.0021434725210536
 271    -0.061381207303709
 272    0.0016212182639892
 273    0.0068788903816264
 274    -0.052103316627618
 275    0.0022712517975581
 276     0.005450284867164
 277    -0.00074284225591096
 278    0.0036747684047749
 279    -0.00011413532885044
 280    0.00019430146312315
 281    -0.00020422216881689
 282    -0.00025000037475925
 283     0.011766248220488
 284    -0.00026062671942518
 285    0.00015433052205259
 286    -0.0016016108759453
 287    0.0019014042039148
 288    0.0039207922544307
 289    -0.010552157190759
 290    -0.0040346395953296
 291     0.018775695065277
 292    0.0021882171973545
 293    0.0003823636512212
 294     0.024004602025462
 295    0.0030308436002421
 296    0.00056207372119236
 297    -0.070633318847534
 298    -0.0088439011580849
 299    -0.0013457934858051
 300    -0.070925244634608
 301    -0.0096330528199076
 302    -0.0026179185541601
 303    0.00028156441779742
 304    -0.00095566366425962
 305    -0.00020385517419208
 306    0.00069619535168357
 307    -0.004549393020601
 308    9.6912844460486e-05
 309    0.00087398616437295
 310    -8.1134873755743e-05
 311    0.00056338369562427
 312    -0.012180331268103
 313    0.00025695789044532
 314    0.00043991528001158
 315    -0.0017633345772153
 316    0.0010094105470898
 317     0.019893127959821
 318    -0.0007249810273995
 319    7.5277188617377e-05
 320     0.025920956146347
 321    -0.0011008138978662
 322    8.2846992012067e-05
 323    -0.074486255317313
 324    0.0026938462981078
 325    -0.00064332885166641
 326    -0.079731311262038
 327    0.0033180996021102
 328    1.3416822288907e-05
 329    -7.6571297841072e-05
 330    -0.0049827944721608
 331    0.00014880100326971
 332    -0.00010960394485802
 333    -0.00064419741083883
 334    -0.0004904527464754
 335    -0.012502196917234
 336    0.00035244616266199
 337    0.00060443840989698
 338    0.00032619117712587
 339     0.028372773269445
 340    0.0065182277534789
 341    -0.043567103629485
 342    -0.066139259620293
 343     -0.10311233146443
 344    -0.0055916172637226
 345    -0.0064935349996684
 346     -0.11000171523194
 347    -0.0061680996251307
 348    -0.007120304722808
 349       0.3387697837679
 350      0.01669314320805
 351      0.02326966698744
 352      0.52314562537653
 353     0.034293087090276
 354     0.022883674867795
 355    0.0057529691261983
 356    0.0074075745401407
 357    0.0012043435495524
 358    -0.011663222012904
 359    0.0066791777663303
 360    -0.0011247480624902
 361    -0.00042603570688471
 362    0.00029293750768309
 363    0.0023462207595549
 364    0.00096487619988663
 365     0.038015284907616
 366     0.078397032695378
 367     -0.18801049306163
 368     -0.11468136962735
 369    -0.040051587492514
 370    -0.0066748637397986
 371    -0.0064154176486105
 372    -0.055976131304024
 373    -0.0095588920140282
 374    -0.008069234208037
 375      0.15927103354781
 376     0.023916122276665
 377     0.024379316321625
 378      0.17259161891981
 379     0.035022450616139
 380     0.021448254573897
 381    0.0022655170656291
 382    -0.0020471615765953
 383    -0.00086717825080225
 384    -0.004615643749526
 385    -0.00022001485724796
 386    0.0089341848942628
 387    -0.002164733231557
 388    0.0016417969045603
 389    -0.013601887397398
 390    -0.006888652232036
 391    0.0028716992876356
 392    0.0020074858209476
 393    -0.0085989627814724
 394    0.0059540182611324
 395    0.0099926785470398
 396    0.0007185491944889
 397    0.0010539800306061
 398     0.012665637624929
 399    0.00073218419298057
 400    0.0012745635441737
 401    -0.042252175797407
 402    -0.0037641760321779
 403    -0.0042822271505624
 404    -0.029332732595903
 405    -0.0033624241516967
 406    -0.0020519361682473
 407    0.00038422150264927
 408    0.00032861869714126
 409    0.00046145033371212
 410    -0.0027162915667415
 411    0.0022608546111421
 412    -0.00063559771450519
 413    0.00078798929214771
 414    9.0133054639824e-05
 415    0.0018270572356852
 416    0.0075178571390528
 417    0.0029525527088895
 418    0.0031293124037176
 419    -0.011261319466837
 420    0.0081114243417882
 421    0.0085406637684718
 422    0.0010450713460212
 423    -0.00053992686282492
 424     0.011041463511832
 425    0.00096980841295154
 426    -0.0006128089608232
 427    -0.036831369297282
 428    -0.0037007032468338
 429    0.0012278486026772
 430    -0.026701744458603
 431    -0.0021908174495215
 432    -0.0041880691450117
 433    0.0016704757966392
 434    0.0017817626766015
 435    0.00038932459967474
 436    -0.0013554865164189
 437    -0.00026734065975721
 438    -0.00059575757013645
 439    0.0077964307859429
 440    0.00012783257555396
 441    0.00092261815556922
 442    0.0017649435889743
 443    -0.0021139165166654
 444    -0.0065313823942189
 445     0.014100575635757
 446     0.019343941974889
 447      0.01135933171279
 448    -0.0048165092761845
 449    0.0013933981613135
 450     0.014471741236825
 451    -0.0064651374024875
 452    0.0021266548190378
 453    -0.044244567559665
 454     0.019489666047413
 455    -0.0054745790630156
 456    -0.040017958253177
 457      0.02690291743889
 458    -0.0082754383586823
 459    -0.00027495250314517
 460    0.00077038252112303
 461    -0.00085987532112527
 462    -0.0033033528238081
 463    -0.002195043595434
 464    -0.00081786056054953
 465    0.00010666464162529
 466    -0.00048665667078626
 467    -0.00037027467066848
 468    -0.0089277916116788
 469    -0.0021373525757187
 470    -0.0083727235170424
 471     0.016658867179027
 472     0.020189276841015
 473     0.013568795966259
 474    0.0021111689503063
 475    -0.0069036348861111
 476      0.01706203932507
 477    0.0029751427096256
 478    -0.0090652035870767
 479    -0.051770469762249
 480    -0.0073226547426099
 481     0.027379740966806
 482    -0.047907666864119
 483     -0.01202244211386
 484     0.030064731557084
 485    0.0035886158056169
 486    -0.0027025814831472
 487    -0.00084767403892302
 488     -0.00179219649859
 489    0.00034657784103703
 490    0.00038213102535222
 491    -0.0093086938549957
 492    -0.00083887153998323
 493    0.0010465326723362
 494    0.0012316021552041
 495    -0.00026275537825493
 496    0.0034336281423521
 497     0.002833945094982
 498    0.0012365926217019
 499    -5.8460330266022e-05
 500    -0.00011079714628667
 501    0.0059756373048464
 502    -0.0026043992398115
 503    -0.001924536592548
 504    -6.6851042570765e-06
 505    0.00017378091999531
 506    0.00029944274545988
 507    0.00010477407775754
 508    0.00011852320074406
 509    0.0014282325669105
 510    0.0029678271630252
 511     0.016586849664025
 512    -0.0022643770924526
 513    -0.0034645925032275
 514    -0.0039586319539487
 515    0.0064893693054771
 516     0.013814397894249
 517     0.013131839040079
 518    4.5497520111693e-05
 519    -5.5266250888239e-05
 520    -0.00023547436793545
 521    -0.00011636511285394
 522    3.937154102585e-05
 523    0.0050262327283821
 524    -0.0018912500973474
 525    0.00066964564765916
 526     0.001345399655641
 527    0.0001768146156119
 528    -0.0031475026834807
 529    -0.024025158568948
 530    0.0022735383744813
 531    0.00046673337811034
 532    0.00039050665222172
 533    0.0054913137078968
 534    -0.00080624486334355
 535    0.00048255341945408
 536    0.00021846885410825
 537    0.0012616412310954
 538    -0.00058827124509499
 539    0.0037030415233347
 540    2.9734689797467e-05
 541    0.00024734288069787
 542    0.00022065004026018
 543    -0.00081439491808592
 544    0.0022489339480712
 545    -2.319062786128e-05
 546    0.00010300554549897
 547    0.00015490162349974
 548    0.00030020310569993
 549    -0.0042524476458931
 550    7.0756314328948e-05
 551    -0.00020973019243344
 552    -0.0002320661897148
 553    0.00014490150035402
 554    -0.0010216665976791
 555    -0.0036792506319931
 556    0.0015577294398047
 557    -0.00080880699060162
 558    -0.00067446217790755
 559    0.00018980691010455
 560    0.0035758366794122
 561    0.0010936386594259
 562    0.00017858284730958
 563    -0.00024427620595346
 564    0.00012763189057505
 565    3.2300638376536e-05
 566    -0.00016378946643033
 567     0.001180634343744
 568    0.0026369524516474
 569    0.0042574846242606
 570    -0.00034542085573708
 571    -0.00096038756743522
 572    0.0032447792400608
 573    -0.001458916969209
 574    -0.005414604000026
 575    -0.010751490023408
 576    -0.00019577282887706
 577    0.00020640022116265
 578    6.1111171908061e-05
 579    -0.00019536998191388
 580    0.00030687232276711
 581    -0.0061664635875309
 582    -0.013872200159258
 583    0.00031254584153058
 584    -0.00080785453520191
 585     0.001280412332569
 586    0.0012716196700817
 587    0.0033504297623849
 588    0.00027560566236114
 589    0.00046343394321223
 590    -0.00067786562570645
 591    0.0072663427017179
 592     0.001389902543273
 593    0.00091862994415506
 594    0.00011772172495487
 595    -0.00080474590233968
 596    0.00049239671563728
 597    0.0034736791997697
 598    0.00031533623726996
 599    0.00023013818188239
 600    9.1062734053675e-05
 601    0.0013231608361227
 602    -0.0021108008401054
 603    2.5383702053689e-05
 604    -0.00063726592008788
 605    6.4582289751837e-05
 606    0.0030528579211858
 607    0.0038184047944576
 608    -0.00020669629500815
 609    0.00062324064293605
 610    -1.1435050708096e-05
 611    -0.00019883570567431
 612    -0.00015397420391711
 613    -0.0025967795034256
 614    -0.00014445415079444
 615    0.00039734538914964
 616    -9.5304015739507e-05
 617    -0.0067362097692993
 618    0.00043495081964638
 619    -8.9586634576661e-05
 620    -6.0043787558646e-07
 621    -0.00062121460120692
 622    -3.6749454615572e-05
 623    0.00012383309235161
 624     1.35033524396e-06
 625    -0.0011775476269717
 626    -0.004031852309017
 627    -0.0010156153860944
 628    -0.0039354623789097
 629    0.0032798785321448
 630    0.0016228399765757
 631    0.0082906932639677
 632    -0.0022543927276124
 633    -0.0015997972308304
 634    0.00039651414087792
 635    0.0013707385262006
 636    -4.9371337129251e-05
 637    -5.5508292384079e-05
 638    -0.00055602349877922
 639    -0.0075343453175491
 640    -0.0040016512025675
 641    0.0014390201490708
 642    -0.0016871220379255
 643    -0.0021940534006886
 644     0.003295059813756
 645     0.005506574840995
 646    0.00050455440828332
 647    0.0015088201756455
 648    0.0020233904051803
 649    -0.0051589596471342
 650    0.0020435547155099
 651    0.0034068121576872
 652    0.00013542781903062
 653    -0.00013357912453282
 654    -0.0003267722362729
 655    -1.0347681287428e-05
 656    0.00048985826532803
 657    6.2889195947075e-05
 658    -7.6959200393633e-05
 659    0.0020138279066152
 660    0.0010105819061958
 661    0.00011230424582518
 662    -0.00035546979644962
 663    3.1751858440714e-05
 664    -0.0021749559809456
 665    0.0022535820765485
 666    0.00032737648763642
 667    0.00011773275504811
 668    0.00014229927968165
 669    -2.5296753171813e-05
 670    0.00062331316999697
 671     0.002457388951131
 672    0.0018532393913594
 673    0.00057831631463571
 674    0.0009158261378446
 675    -0.00051009632095238
 676    -0.005105214533873
 677    -0.0017123799558801
 678    -0.00019831672404515
 679    -0.00024000117894715
 680    -0.00012917820995751
 681    -6.8694049126373e-05
 682    -0.00023278567096665
 683    -0.00095696298977055
 684    -0.0021451616847443
 685    -0.0034708573630875
 686    0.00026800825870988
 687    0.00071507293747131
 688    -0.0025481764178197
 689    -0.0029813194096759
 690    0.0034239982737456
 691    0.0097586640942841
 692    0.00018990281916087
 693    0.00022624634345366
 694    -0.00010601895076644
 695    0.0001644781372232
 696    0.00033376684106382
 697    0.0055075913859302
 698     0.013861839218856
 699    -7.8857081386827e-05
 700    0.00098802388961591
 701    -0.0012225839640697
 702    -0.0067549220072454
 703    0.00080885370756504
 704    0.0011284373258702
 705    -0.00015164171761708
 706    0.00076884831722142
 707    -0.001502044066621
 708    -0.0030452440432565
 709    0.00023625561856822
 710    -0.00038393222425004
 711    0.00065361034617255
 712    -0.0040263169773127
 713    -0.004273191481995
 714    -0.0001912146180326
 715    -0.00078995122639566
 716    3.6609021796074e-05
 717    -0.0014375324535099
 718    0.0026269226119571
 719    3.9056678014165e-05
 720    0.00073281503461581
 721    -4.7677316431453e-05
 722    -0.00049626320575537
 723    -0.0039178502656877
 724    0.00037724654924166
 725    -0.00020320538526838
 726    -6.4008314289633e-05
 727    -0.00024561803537353
 728    0.0014238038895438
 729    0.0023732940373606
 730    0.0014692893379675
 731    0.00060668744725167
 732    0.00076440378880953
 733    0.00084443198195252
 734    -0.00075944425078903
 735    -0.0041818457825907
 736    0.0001775034360791
 737    -0.0001628544394668
 738    -0.00011676716541432
 739    0.00016772886059632
 740    -0.00022801863724376
 741    -0.0010097639546114
 742    -0.002569096835887
 743    -0.0014632862284951
 744    -0.00010816351933903
 745    -0.0027551637826156
 746    0.00081631292349376
 747    -0.0015592535656674
 748    0.0091094283094332
 749     0.005521690670996
 750    -0.00031053842536021
 751    0.00033259210709155
 752    -7.0969868069143e-05
 753    -9.7325448633581e-05
 754    0.00012330867557054
 755    0.0060596181626435
 756     0.010460131897726
 757    0.00025687034573646
 758    -0.0014624339123108
 759    0.00082102651162848
 760    -0.0014403466125754
 761    -0.0028263755990909
 762    0.00022206116066174
 763    0.00069787999010974
 764    -0.00043055135633079
 765    -0.0073098441205794
 766    -0.0014542360240431
 767    0.00099957062905873
 768    0.00081530502909043
 769    -0.00011180661415399
 770    -0.00045538416263282
 771    -0.0041597197756949
 772    0.00029965162528318
 773    -8.3288980452854e-05
 774    -0.00025893071262042
 775    -0.0012441640543755
 776    0.0024378190247279
 777    2.2486408612978e-05
 778    -0.00013928635822937
 779    0.00065030277910166
 780    -0.0032289789196402
 781    -0.0019099612388892
 782    -0.00011766575430803
 783    0.00014938484693219
 784    -0.00066726331263935
 785    0.0016294602594051
 786    -0.0057907768940241
 787    -0.008088641641779
 788    0.00036383869579953
 789    0.0033596154320054
 790    0.0030125794238605
 791    0.0080535500651498
 792    0.0035598067526927
 793    0.0069066122329408
 794    -0.00040241421288641
 795    0.00028726037587728
 796    0.0001309286267493
 797    0.00063931045691606
 798    -0.00038726309421061
 799    -0.00051559137348081
 800    -0.00048411642894229
 801    -0.0098502623094108
 802    0.00024176107151051
 803    -0.00092036076488838
 804    -0.00059043048950387
 805    0.0017046115937122
 806    0.0017153654401327
 807    -0.00029425959303995
 808    -9.3810162088828e-05
 809    -6.7502105374048e-05
 810    -0.00010058867085984
 811    -6.9518764316358e-05
 812    -9.3205971871549e-05
 813    0.00073393042863516
 814     0.004208208705257
 815    -0.0003961124380933
 816    -0.00048978466224718
 817    -0.00085763760877143
 818    0.0005091738257433
 819    -0.0019671012140282
 820    -3.0955492537329e-05
 821    0.00033409279253329
 822    0.00041242178013744
 823    0.0016612188271992
 824    0.00023526780782845
 825    2.7124872326227e-05
 826    0.00027255562173279
 827    -0.0001772906703854
 828    -0.0087617015838388
 829     0.010539136529711
 830    0.0007364762863098
 831    0.0012404188887725
 832    0.00098643260723215
 833    0.00038235590879312
 834    0.0033846617209811
 835    -0.00047129019664855
 836    -0.00037485832536524
 837    -0.00045094641952071
 838    -0.0084161421930087
 839    0.0062637845536172
 840    -0.00017426360317297
 841    0.0011849996599106
 842    0.0012033788591745
 843    0.00028048282581701
 844    -0.0014630452735839
 845    -0.010125133589604
 846    -0.0001765444828636
 847    -9.460614253673e-05
 848    -9.8035162616426e-05
 849    -0.00098001388322883
 850    -0.0015629974908094
 851    0.00053586836854653
 852    -2.4111600659056e-05
 853    -5.8137296527067e-05
 854    7.904406234692e-06
 855    6.5738144383108e-05
 856    3.1723487772733e-05
 857    -0.0024518244285799
 858    -0.0059633259321982
 859    -0.014961174421104
 860    0.00082075534611053
 861     0.004573878268854
 862    -0.0041976959716055
 863    0.00049872191084511
 864    -0.0091500370465732
 865     0.010449509024708
 866    4.6515403413569e-05
 867    0.0003543860631472
 868    -7.2350796516902e-05
 869    5.6647066055502e-06
 870    -0.00022744422853466
 871    -0.0030930173442322
 872    0.00021666924851698
 873    0.00037759538961905
 874    -3.6805433696397e-05
 875    0.00063515039450892
 876    -0.004312242965985
 877    0.0042994950725915
 878    0.00051780557234675
 879    -0.00079682632273277
 880    0.00018473981282185
 881    -0.0061895560896247
 882     0.020066879445993
 883    -7.7851548976712e-06
 884    -0.00064816201171336
 885    0.00097207059727507
 886    -0.00052734882335126
 887      0.00038643729379
 888    3.7827734026111e-05
 889    -6.6621219033195e-05
 890    0.00014205838567741
 891    -0.00035298134421583
 892    0.0041190241024126
 893    -7.6059255789242e-05
 894    -0.0001946231761216
 895    -0.00014933189488514
 896    -0.00035205071818963
 897     0.002296470067052
 898    -5.5888788071741e-06
 899    0.00012897850788436
 900    0.00013127493666505
 901    3.4465399873261e-05
 902    -0.0010995421224105
 903    0.00046920225910256
 904    0.0016900625235654
 905    -0.00064659462852685
 906    -0.00059089379282574
 907    -0.00027786097200281
 908    0.00096216838789614
 909    0.0054050990239028
 910    -0.00016385782224278
 911    -0.00024524896848571
 912    0.00014103350612385
 913    -0.00014939183822638
 914    -0.00033280381998629
 915    0.0011677929718649
 916    0.0025614492803538
 917    0.0046294492578309
 918    -0.00017749407939433
 919    0.0029729303935589
 920    -0.00081160570478028
 921    -0.0029319211988752
 922    -0.010911289592721
 923    -0.0037873717402764
 924    0.00025975983438369
 925    0.00032671567970483
 926    7.1530109653088e-05
 927    6.0446027756335e-05
 928    0.00027727871899814
 929    0.0013205803423576
 930    0.0034329820725831
 931    0.00028280639181067
 932    -0.00067607347198597
 933    0.00039901487626462
 934    -0.0055092291557699
 935    -0.016740646501015
 936    -1.7266207397155e-05
 937    0.0011305342709221
 938    -0.00093148389773349
 939    0.0072303204221592
 940    -0.00056321394307614
 941    0.0011973231263644
 942    -0.00074233810212493
 943    0.00013040406836723
 944    0.00059967712162097
 945    0.0034793955194781
 946    0.0003887258299008
 947    0.00014917371048237
 948    0.00022481436777983
 949    0.0041413964090731
 950    0.0022641602606376
 951    -0.00011239351078484
 952    -0.00017801293599564
 953    0.00078136921969151
 954    0.0013889022859478
 955    -0.0030184589972632
 956    -8.2413578105886e-06
 957    9.4163710918232e-05
 958    -0.00079200701990728
 959    -0.001654875362631
 960    0.0050663625188615
 961     0.013711525897938
 962    0.0004743079939088
 963    -0.0027316376890224
 964    -0.0033073880096481
 965    0.0037598334173905
 966    -0.0066803765740214
 967    -0.0054116909669871
 968    0.00011584578214398
 969    -0.00068033629026762
 970    -0.00016141916231771
 971    -0.00066106648591801
 972    0.00013880879110001
 973    0.00063127250011139
 974    0.0010919589867814
 975     0.006951605631729
 976    1.6952708605451e-05
 977    0.00094037961662529
 978    0.0014940132297884
 979    -0.0014656133542883
 980    0.0020423812313284
 981    -0.0016769384043649
 982    -0.00012105018173159
 983    -6.6382695351672e-05
 984    3.1559787271153e-05
 985    -9.8732846293444e-05
 986    -2.6174985461361e-05
 987    -0.0014565787943207
 988    -0.007584220613231
 989    -0.00018002814587714
 990    0.0010761779962145
 991    0.00062575169378685
 992    -0.00076488725691836
 993    0.0023346832107719
 994    0.00010551643860722
 995    -0.00065242062243172
 996    -0.00030365436989431
 997    -0.0021126663636649
 998    -0.00043315591875507
 999    0.00018284728840713
 1000    0.00023963534980743
 1001    -0.0004277674436988
 1002    0.0082355966877379
 1003     -0.01144881630891
 1004    0.00072809151073662
 1005    -0.0011435433466099
 1006    -0.0012806165163902
 1007    0.00051254985024877
 1008    -0.0016660505862786
 1009    -0.00057216285093738
 1010    0.00036343710740651
 1011    0.00014212634249119
 1012    0.0071450254229813
 1013    -0.0067977514151462
 1014    2.7039851144659e-06
 1015    -0.0010834989771218
 1016    -0.0010861006092991
 1017    -0.00034974774046275
 1018    0.0017127895793493
 1019     0.010601504767292
 1020    -0.0001020780893129
 1021    -9.8732219207398e-05
 1022    0.00019302206597929
 1023    -0.00065738498678001
 1024    -0.00062601361310728
 1025     0.000990029369525
 1026    6.1726016846013e-05
 1027    6.4861603155845e-05
 1028    -4.0285695611821e-05
 1029    -3.9736812144006e-05
 1030    -2.8993179360886e-05
 1031    0.0023651840895312
 1032    0.0056318687191578
 1033     0.015366239184275
 1034    0.0013672802426618
 1035    0.0043693763428866
 1036    -0.0045841241273387
 1037    0.00053801705305291
 1038    -0.011604233134692
 1039    0.0087027347453282
 1040    -6.9378383109141e-06
 1041    -0.0003166746986069
 1042    7.0892493767973e-06
 1043    -1.1570700451283e-05
 1044    0.0003408079039634
 1045    0.0028849032216591
 1046    -0.0021390588503234
 1047    0.00041730197563748
 1048    -0.0007262888521021
 1049    -0.00013454281519285
 1050     0.003754746665979
 1051    -0.0019576832949326
 1052    0.00038046555802489
 1053    -0.00020454021449552
 1054    0.00072176517933475
 1055     0.006499310363053
 1056    -0.020333497331097
 1057    5.8069325909826e-05
 1058    -0.0010335187095802
 1059    0.00074850073671875
 1060    0.00047032118066061
 1061    -0.00068259961884398
 1062    7.2342188184483e-05
 1063    -0.00012601517299801
 1064    8.6352805989471e-05
 1065    0.00040812633898686
 1066    -0.0042079655762551
 1067    -7.0256765783627e-05
 1068    0.0001229595800821
 1069    0.00021288094497322
 1070    0.00035128920477797
 1071    -0.0027277450981603
 1072    -6.0519365606152e-05
 1073    -0.00016062505265143
 1074    -0.00012175627784573
 Sym= A
 Ene=   0.09421083264
 Spin= Alpha
 Occup=    0.00000
   1    -0.0070170699887635
   2    -0.001465636354334
   3     0.014736219173672
   4    0.0050911443903671
   5    0.0020858799325586
   6    0.0023022421175825
   7     0.003677064092776
   8    0.0021316846516962
   9    0.0023489749320857
  10    0.0037759409673124
  11    -0.0076350775926433
  12    -0.0061879560595761
  13    -0.0078801276169738
  14     0.011061839448374
  15    -0.012316335943873
  16    -0.027738351261721
  17    -0.0002127471671094
  18    -0.0021823256323846
  19    -0.0026269480554755
  20    0.00034679426155441
  21    -0.00071757046455191
  22    -0.00028703525340949
  23     0.002856822109932
  24    0.0030887957744507
  25    0.0020103011899664
  26    0.0022776107698639
  27    -0.013698587521662
  28    -0.014039253390351
  29     0.037138134057602
  30     0.031595646469273
  31    -0.0050567959917494
  32    -0.0017357842724274
  33    -0.0023188335029721
  34    -0.0063733842201827
  35    -0.0020356394957984
  36    -0.0028258089391896
  37     0.012585349553816
  38    0.0084601676905769
  39    0.0087565078504319
  40     0.045784705371774
  41     -0.01539309984084
  42    -0.0047240209502582
  43    0.00084623597821145
  44    -0.0018109033041086
  45    0.0020827267040225
  46    -0.00075070160212638
  47    -0.0029706728568178
  48    -0.0012817957780978
  49    0.0013376674809264
  50    -0.0031690711112325
  51    0.0018705257011481
  52    0.0029992924049898
  53    -0.012495666070275
  54    -0.013132515579078
  55      0.04275597444382
  56    0.0026506622795914
  57    -0.0059724047584311
  58    -0.0034106994329203
  59    -0.0036961082560557
  60    -0.0072047180809211
  61    -0.0040709163464353
  62    -0.0044482991176979
  63     0.022553903936833
  64     0.013306388394921
  65     0.014396135316695
  66    0.0013857148048768
  67    -0.0011624229320772
  68    -0.001163887816591
  69    0.00061735057577425
  70    0.0044983860732001
  71    0.00098684509593747
  72    0.0024591556875446
  73    0.00040916676387844
  74    -0.00076294793736442
  75    -0.0068892829241331
  76    -0.002291399147711
  77    -0.003786922870664
  78    -0.00065958309735557
  79     -0.01150305380166
  80    -0.011866241933964
  81     0.036520204852363
  82     0.007009886531435
  83    -0.008060732661934
  84    -0.0063292596704339
  85    -0.0020491779292141
  86    -0.009995755644355
  87    -0.0078740330494084
  88    -0.0024138233508689
  89     0.024634178069937
  90     0.018878010870879
  91    0.0084384998279786
  92     0.027185889773837
  93     0.023667401527576
  94    -0.0061854304136323
  95    -0.0018123804779966
  96    0.0010507387991249
  97    0.0015959368078796
  98    0.00013981462316472
  99     0.003562316081284
 100    0.0034517564993453
 101    -0.0015773888803821
 102    -0.0029187133601472
 103    -0.0004765257788547
 104    -0.0061827222070552
 105    -0.0015324324044576
 106    -0.0015747648521772
 107    0.0042145711471466
 108    0.0048632338093133
 109    0.00016074205509277
 110    -0.0015617056051272
 111    -0.00085425265746203
 112    0.00020651204894566
 113    -0.0019575999818363
 114    -0.0010443430305628
 115    -0.00046106484609993
 116     0.004263167198713
 117     0.002984957048629
 118    0.0014100040716863
 119    0.0087144249007592
 120    0.0025046848331971
 121    0.00051452897448002
 122    0.0011586595384903
 123    -0.00066515311290634
 124    -0.00091694314155712
 125    0.00067169825924662
 126    -0.00099231486734534
 127    -0.0016273786534446
 128    0.00073846637301075
 129    0.0015579372862847
 130    -0.00088519163648784
 131    -0.0012558921656173
 132    -0.0013897009187252
 133    0.0061802319116571
 134    -0.0060154148704167
 135    -0.00095863867890225
 136    8.2057112802743e-05
 137    -0.0016683818625485
 138    -0.0012037228726118
 139    0.00012380192920804
 140    -0.0020483805462031
 141    0.0027381761053626
 142    0.00015190746597724
 143    0.0054812443949154
 144    0.0039727630405021
 145    -0.0032089910930236
 146    0.0060588776157141
 147    0.00045529264155604
 148    -0.00032475252457331
 149    0.0013023925955618
 150    0.00068875715742243
 151    0.00046998947918449
 152    -0.00090458519533294
 153    0.00047606254766451
 154    -0.0018303288732043
 155    -0.0011971069125021
 156    -0.00094221061783558
 157    -0.0013625560649933
 158    -0.0015129132512077
 159     0.007173706354314
 160    -0.010442614155687
 161    -0.00063579718875516
 162    -0.0017997183757508
 163    0.00062152981654234
 164    -0.00078085816921918
 165    -0.0022431053195661
 166    0.0008068186776458
 167    0.0023216197109553
 168    0.0052118608170412
 169    -0.0011044839556006
 170    0.00038624849024986
 171    0.0099926103861836
 172    -0.0099078330668525
 173    -0.001607808692696
 174    0.00091063592460585
 175    0.0012097818212801
 176    9.6019303589049e-05
 177    -0.00090854401217754
 178    0.0021351551112921
 179    -0.0017767478955831
 180    -0.0017387095298359
 181    -0.00011903878319651
 182    0.0011589256541835
 183    0.0030509545836793
 184    7.4707931828808e-05
 185     0.013919266983446
 186    -0.055259563064375
 187     -0.01171614400206
 188    -0.010697986183321
 189    -0.0095333998231094
 190    -0.012014061310126
 191    -0.011051355810032
 192    -0.009861711041752
 193     0.029815185526227
 194     0.011482973195333
 195     0.010176751164039
 196     0.079044260604197
 197      0.14817939015309
 198      0.12831738981766
 199    0.0022543060063856
 200    -0.0028489702121103
 201    -0.0091808664285114
 202    -0.0044296085366255
 203    -0.00027773933251622
 204     -0.00563617833897
 205    0.0053835957528204
 206     0.012676704998065
 207    0.0050499276795415
 208    0.0010213463893157
 209    -0.0022176664262898
 210    -0.0027151553041421
 211     0.022375403336466
 212     -0.07032813389258
 213    -0.0003625885217942
 214    -0.0025144116450367
 215    -0.0035146214716518
 216    -0.00032039234573992
 217    -0.0031282018549122
 218    -0.0043682956293111
 219    0.0042172961506854
 220    0.0077343217185392
 221     0.011117050429873
 222    -0.015424944879998
 223    0.0069641713835155
 224    0.0085033237015947
 225    0.0076667735927079
 226     0.002688205432812
 227     0.001755652691397
 228    -0.010914945066001
 229    0.0029418818956882
 230    -0.010879028774553
 231    -0.0036594560920446
 232    -0.0021391413197866
 233     0.013698108607847
 234    -0.0036996651142963
 235    -0.0015928840519461
 236    -0.0012998149258811
 237    -0.0025789719164735
 238    -0.0024443224709392
 239    0.0025357558797034
 240    -0.0096936046181509
 241    0.0019290622961255
 242    0.0030559689687891
 243    -0.011846925024979
 244    0.0023959832208195
 245    -0.010126649863587
 246     0.032436615561543
 247    -0.0070221351794901
 248    -0.00054623439696062
 249     0.043739985328285
 250    -0.0022827322771544
 251    -0.0022376979956353
 252    -0.0040450341661633
 253    0.0073853822771987
 254    0.0053457979333413
 255    0.0023769327704133
 256    0.0069362529387192
 257    0.0079456102656349
 258    -0.011582913601763
 259    -0.0048638021461952
 260      -0.0032685862556
 261     -0.00642214153253
 262    -0.0059364202524945
 263    0.0017473425629364
 264     0.030497638435526
 265    -0.0034845611876336
 266    0.0010333758559654
 267    -0.010432956416569
 268    -0.0043153660694021
 269    0.0012750743279707
 270    -0.012668846927112
 271    0.0095902534243921
 272    -0.0052591143157099
 273      0.03686163158131
 274     0.022613673169863
 275    0.0099249431797262
 276     0.033228998208469
 277    -0.0044673610909117
 278    0.0034094106831712
 279    0.0076174171592796
 280    0.0060370221133318
 281    0.0022545027876522
 282    0.0013020537658119
 283    -0.0056133398898265
 284     -0.01218455533054
 285    -0.010894840645147
 286    -0.0022041106894406
 287    -0.0083098739226353
 288    -0.0080283608885411
 289     0.007963014710207
 290     0.070839926096571
 291    0.00039369430985869
 292    -0.0050967835339473
 293    -0.00052817789316284
 294    0.00056204117810315
 295    -0.0065112378257129
 296    -0.00062052091723917
 297    0.00033304803028909
 298      0.01037789727025
 299    0.0024301519517338
 300    -0.010940674796886
 301     0.068324281131629
 302    -0.003612632720945
 303    -0.0018990949109276
 304    -0.00034144533085079
 305    -3.7213317077866e-05
 306    -0.0021639905278805
 307    -0.0016794596121801
 308    0.0014053162576181
 309    0.00065150964749376
 310    -0.0011360689937588
 311    0.00031050787181183
 312    0.0019473597628643
 313    -0.0081154756320724
 314    -0.0078140567806456
 315     0.007500187354849
 316     0.068200070577114
 317    6.6806133666182e-05
 318    -9.1916366064671e-05
 319    -0.0048891885019129
 320    0.0001259632490879
 321    -3.6306003270023e-05
 322    -0.0062295301395499
 323    0.00081745345272613
 324    0.0019197049770755
 325     0.010076490161966
 326    -0.0080728027317472
 327    -0.010008051057821
 328     0.064448356414894
 329    0.0024870010546425
 330    -0.001458417709663
 331    -0.00049734903921483
 332    0.00086940091905997
 333    -0.00029815455813211
 334    -0.00044385868720752
 335    0.0014952372451186
 336    -0.0006944192352178
 337    -0.0015307111209476
 338    0.00066809747979999
 339    0.0011264814375322
 340    -0.00032877860079422
 341    0.0098380156939544
 342    -0.026011261221918
 343      0.01471658226492
 344     0.005650583841834
 345    0.0019841907542294
 346     0.015024420491162
 347    0.0058142255390502
 348    0.0020317394683799
 349    -0.035725670599962
 350    -0.0096860950891648
 351    -0.0033179771077501
 352     -0.11715215210064
 353    -0.056627722900578
 354    -0.024320247994767
 355    0.0043789450449744
 356    0.0020654327631256
 357    -0.005945236597946
 358    -0.0089436546022065
 359    0.0016211014121665
 360    -0.0049050778072276
 361    -0.0053773518262347
 362    0.0074376556187719
 363    0.0079646679119214
 364    -0.0024244629642319
 365    -0.011058975024878
 366    -0.010919461340155
 367     0.020252300821961
 368     0.059364398115598
 369    0.0081414640447299
 370    0.00057141333448656
 371    -0.0016545374340582
 372     0.010237235066338
 373    0.00074737051436574
 374    -0.0020581487712608
 375    -0.020608287271659
 376    -0.00043513322987158
 377    0.0048062023933914
 378    -0.068270745655526
 379    -0.0086986427605343
 380    0.0064199798606557
 381    -0.0012854539330717
 382    0.00015825313651947
 383    -0.0013154042861284
 384    0.0024445164473207
 385    -0.00085610595291598
 386    0.0008216305419629
 387    -0.00020327555704139
 388    0.0013764528333603
 389    -0.0017605636535835
 390    0.0017764603164635
 391      -0.0218763278347
 392    -0.022552316550551
 393     0.068564407986759
 394      0.01626730667123
 395     0.012994446138188
 396    -0.0052372904767217
 397    -0.013136099386539
 398     0.016072117414997
 399    -0.0062325260879447
 400    -0.016330644946042
 401    -0.040806369404886
 402     0.020778244930883
 403     0.039620952246126
 404    -0.034361324614773
 405    -0.011129511499363
 406     0.047315927632382
 407    0.0027729926723044
 408    -0.0077292237770372
 409    0.0035351974912755
 410    0.0028897888050115
 411    -0.0046224433650992
 412    -0.0051175686779998
 413     0.013436171400347
 414    -0.0066052767432956
 415    -0.0057800991501047
 416    0.0062424853254067
 417     -0.02578041537613
 418    -0.027058395293581
 419     0.086973939920341
 420    0.0085660232281702
 421     0.010968517063368
 422    -0.0083595760885834
 423    -0.0085424059209671
 424     0.013130395235942
 425     -0.01004772736871
 426    -0.010256117550967
 427    -0.043627088851546
 428     0.032764030283288
 429     0.032390436869243
 430     0.010951587701141
 431    -0.0015873740942706
 432    0.0016780112355018
 433     -0.00668008611319
 434    -0.003856652016871
 435    0.0018387288951413
 436    0.00039718867980942
 437    -0.010176067880328
 438     0.010346774151119
 439    0.0055268238686659
 440    -0.0044972472859486
 441    -0.00055333462485615
 442     0.016001490226306
 443    -0.0047627044693955
 444    -0.0050972577903252
 445     0.019219938925078
 446    -0.015878601322203
 447    -0.00082863265304145
 448    0.0012800022695432
 449    -0.0034095947490428
 450    -0.0010848778443345
 451     0.001605920874144
 452    -0.0042229292288588
 453    0.0011479731051063
 454    -0.0035299093811752
 455     0.010489412741034
 456     0.012713241568002
 457    -0.014114010969863
 458      0.01561647581231
 459    0.0019410468541844
 460    0.0014257549076919
 461    0.0019960428288169
 462    0.0029647569503548
 463    0.0019729917844147
 464    -0.0030418815551363
 465    -0.0012553100633346
 466    -0.0028425553002109
 467    -0.003782913215612
 468    -0.0020917624465786
 469    -0.0041495868438941
 470    -0.0044280695179286
 471     0.016280520468058
 472    -0.0092693068491359
 473    -0.00023876074255929
 474    -0.0026826184555618
 475    -0.00066638210975727
 476    -0.00032178132209584
 477    -0.0033111225521416
 478    -0.00080197031254476
 479    2.1396663260269e-05
 480    0.0083604019349489
 481     0.002263840299047
 482    0.0086230595818634
 483     0.013152764436026
 484    -0.00031817903587952
 485    -0.0014876131905785
 486    0.0019642163929396
 487    0.0023772690056545
 488    7.2519557137998e-05
 489    0.00028205675276889
 490    0.0028614513659682
 491    -0.0018422518237305
 492    -0.0031065850043214
 493    0.00031450967567148
 494    -0.00072103126866226
 495    -0.00019165440135565
 496    -0.00021653687338603
 497      0.01378376836028
 498    -0.003056857740519
 499    -0.0010647264509205
 500    -0.0013757098841634
 501    -0.0074012120847466
 502    -0.0021047567068352
 503    -0.0021684790917515
 504    7.040968854037e-05
 505    6.2817213316707e-05
 506    0.00017940483094737
 507    -9.9230537589985e-05
 508    9.7750860323161e-05
 509    0.0026026161017592
 510    0.0037757795248752
 511     0.029928837123321
 512    0.00074119789742621
 513    -0.0029618320401153
 514    -0.0025586953290705
 515    0.0018554630756866
 516    0.0070019299124429
 517    0.0067037625227107
 518    -1.4437208468572e-05
 519    -0.00023122770072899
 520    -0.00029255688797414
 521    4.8682667956956e-05
 522    -0.0002125146305918
 523    -0.00046616578446451
 524    -0.006169187149989
 525    6.256828280688e-06
 526    -6.0740068285884e-05
 527    -0.00027279150051054
 528    -0.0020177035708024
 529    -0.021565007068777
 530    -0.00054180251554901
 531    -0.00041582794120027
 532    -0.00031103708513181
 533    -0.00089974931724187
 534    -0.0041074596911407
 535    1.768322843297e-05
 536    -0.00023843722314662
 537    -5.9371603891913e-06
 538    -0.00030144987879106
 539    -0.0082377320350887
 540    -8.6040447644949e-06
 541    -0.00014132493434218
 542    -0.00010462039426572
 543    -0.00022333679996073
 544    -0.0091198838754717
 545    -4.6409405741691e-05
 546    -9.213538195303e-05
 547    -6.6003165627669e-05
 548    0.00074160399011907
 549    -0.002841510879944
 550    -0.00013882559474055
 551    -4.9026766833832e-05
 552    -7.3640935194743e-05
 553    -0.0001618098132821
 554    0.00077688000066111
 555    -0.0007441945828993
 556    0.0018691284332178
 557    -0.0024084676123837
 558    -0.0027917301371572
 559    0.0044786575202455
 560    -0.0021984503242856
 561    -0.010739932954067
 562    -0.00013009115008101
 563    -0.00010518674871909
 564    2.0049352339967e-05
 565    -0.00035591324376359
 566    -0.00025602603031255
 567    0.0047964889254677
 568     0.008303391836989
 569     0.050523419079091
 570    -0.0041463363085462
 571    -0.0083675112868573
 572    -0.0015635284203209
 573    0.0058486726152144
 574     0.017135227514668
 575    0.0066282744761325
 576    0.00014470387551218
 577    -7.4547778569025e-05
 578    0.00012112032101046
 579    0.00011326451264346
 580    -0.0001637090949034
 581    -0.0017071548944188
 582    -0.0027267799575887
 583    0.00031328937676442
 584    1.5044982078099e-06
 585    5.6938780519135e-05
 586    -0.0026733748403246
 587    -0.020009616172164
 588    -1.057312426669e-05
 589    0.0002390285317737
 590    0.00024475143911898
 591    -0.0054694875842246
 592    -0.051057758530693
 593    -0.00045977142219244
 594    -0.00083328081126559
 595    0.00010980418744858
 596     0.001880203844888
 597    0.00098762944271124
 598    0.00031825322856662
 599    -3.5366204974148e-05
 600    2.9591304581216e-06
 601    -0.0015274184072127
 602     0.014287089633993
 603    -0.00018026348637002
 604    -0.00011315420645156
 605    -0.00029500451883007
 606    -0.00012393955120355
 607     -0.01162708949239
 608    7.3934031678964e-05
 609    -0.00034770061317737
 610    -6.0243063736261e-05
 611    -0.0011587537706477
 612    -2.1603513249395e-05
 613     0.034561468694282
 614    0.00093787415698237
 615    -0.00077879972541724
 616    -0.0059920586195889
 617    0.0034369299800558
 618    -0.0029470690842079
 619    -0.016378517154864
 620    1.1603270107318e-05
 621    2.5232887465283e-06
 622    0.00016509612934991
 623    -2.180127647539e-05
 624    4.4187586144054e-05
 625    0.0051497186091944
 626    0.0084463519869895
 627     0.058204059057732
 628    -0.0016083410555569
 629    -0.0040930135326714
 630    -0.0043944628085477
 631    0.0049767191932802
 632    0.0090283231700689
 633    0.0054120071532159
 634    -1.157490568989e-05
 635    6.4467455449303e-05
 636    -9.0922134619878e-05
 637    0.00016937334877528
 638    0.00022532055984333
 639    -0.00019385839818459
 640    -0.0057228121514218
 641    0.00011220956361307
 642    0.00024014128566878
 643    -9.2622370191346e-05
 644    -0.0015991397504164
 645    -0.039239158661075
 646    1.1915483733075e-05
 647    0.00026861143060357
 648    -1.1539170295885e-05
 649    -0.004783613772377
 650    -0.038042019158441
 651    0.00029090214948509
 652    -0.00043043618384869
 653    -0.00047748668180124
 654    0.00051469064552885
 655    -0.014665510073284
 656    -3.1549783668457e-05
 657    -3.3424865683622e-05
 658    -0.0002787037375518
 659    -0.00020781922765025
 660      -0.0190626747692
 661    5.4770074299253e-07
 662    -0.00010930249142764
 663    -0.00013544803764088
 664    0.00012902575899837
 665    -0.017242807950884
 666    6.6217154227369e-05
 667    -0.0001733991839742
 668    -8.5893110485316e-05
 669    -0.00031434571225248
 670    -0.002682903638421
 671     0.031677857750525
 672    -0.0027430216304038
 673    -0.0065275804601593
 674    -0.0023611738840758
 675    -0.0093972310741931
 676      0.00222251493138
 677     -0.00701400631898
 678    -0.00038430530742482
 679    0.00013685940122846
 680    0.00011431818738067
 681    -0.00025928595221011
 682    0.00042254466198504
 683    0.0089723411874527
 684     0.010871743024071
 685      0.12927991390504
 686    -0.00025645268010398
 687    -0.009747564050641
 688    -0.0067680251502729
 689    0.0023934849705643
 690     0.037013075548424
 691     0.020436837246353
 692    0.00013144522022311
 693    0.00020588312643978
 694    2.7394533052049e-06
 695    9.1447149073996e-05
 696    -0.00046357088413247
 697    -0.0034393696077299
 698    -0.021203800936607
 699    3.5018889121533e-05
 700    -0.00053654367281041
 701    -0.00022305262681245
 702    -0.0082937862660495
 703     -0.11397095340425
 704    -0.0019548659805185
 705    0.00052493822675587
 706    -0.0001856616979099
 707    -0.0056721861812756
 708     -0.07628141211245
 709    0.00059601044572429
 710    -0.0003894584700032
 711    0.00092243245847761
 712    -0.0014127670869953
 713     -0.01757988713047
 714    -0.00025158656950206
 715    -0.00056390805777684
 716    -9.3765224792458e-05
 717    -0.0037686330566657
 718    -0.00064485831993562
 719    -0.00010734245183705
 720    -0.00043304578982048
 721    -0.00023885431001547
 722    0.0047640997413396
 723    -0.0036210596843118
 724    -0.00072453265409324
 725    -5.9642857603324e-05
 726    -9.8486960382284e-05
 727    -3.2417193560995e-05
 728    -0.00047188653970173
 729     0.009900997811014
 730     -0.00218947889555
 731    -0.0033537113451643
 732    -0.0042686060549309
 733    -0.007684839959926
 734    -0.011140668013057
 735    -0.0044146773029517
 736    0.00044115214225267
 737     0.000170093464229
 738    -5.3410953012226e-05
 739    3.674946459341e-05
 740    0.00013029283613903
 741    0.0067101777719799
 742    0.0099904383126927
 743     0.084384167691196
 744    0.0025527127906528
 745    -0.0018453934588573
 746    -0.009282723672435
 747    -0.003037030363439
 748    0.0073898784575346
 749     0.023020507259421
 750    -0.00023448456203439
 751    -6.7097598343749e-05
 752    9.2707760496846e-05
 753    -9.0383403599207e-05
 754    0.00014906631349177
 755    -0.0027341310240301
 756    -0.018816514604046
 757    -9.8300449783268e-05
 758    -0.0001360436515852
 759    -0.00021818122149994
 760    -0.0038798525696123
 761    -0.032711966311448
 762    7.1680186725764e-05
 763    0.00042396793708578
 764    3.2999638268318e-05
 765    -0.0061349789520917
 766    -0.077518196264163
 767    -0.00017702804326343
 768    -4.1307970826895e-06
 769    -0.0004556779161025
 770    0.0030736591546991
 771    -0.001130366769692
 772    -0.00034489349383691
 773    8.7699086731315e-06
 774    -7.0527855539081e-05
 775    -0.0022296191359301
 776    0.0096498031938097
 777    -5.3022826998893e-05
 778    -0.00021208615377249
 779    -0.00014376019876496
 780    -8.9166021293503e-05
 781    -0.018673121846299
 782    -0.00027708171550632
 783    -0.00017007619538432
 784    -0.00017897448597068
 785    -0.025441497547037
 786     0.020356760000288
 787      0.66072343517882
 788     -0.08854012317116
 789     0.010089391933733
 790    -0.011916487093642
 791     -0.31456712726979
 792    0.0064370429935616
 793    -0.063920320573008
 794    -0.0013799598456676
 795    0.0040654903109561
 796    0.0027987302024241
 797    0.00026274610783096
 798    0.00098518750499343
 799     0.089295889510882
 800      0.13707528202429
 801       1.1380027997398
 802    -0.013443394321717
 803    -0.058919686291549
 804     -0.10195808565928
 805     0.026262981709482
 806      0.15517050500223
 807      0.25167456937472
 808    0.00052978652402877
 809    0.0003634107440094
 810    -0.00039994971514231
 811    0.0019221747755373
 812    0.00030154032490827
 813     -0.03926610785052
 814    -0.092278405335935
 815    -0.0016330002160021
 816    0.0034723666965476
 817    0.00022646122176106
 818    -0.060119339942117
 819     -0.56930468555016
 820    0.0027761896280139
 821    0.00090402035956741
 822    -0.0023968868593595
 823    -0.062853050136919
 824     -0.97472278953436
 825    0.00020857355569152
 826    -0.001155803065716
 827    0.0059622573681737
 828    -0.0062224731067278
 829     -0.19210811383052
 830    -0.0024374159934476
 831    -0.001728998253583
 832    0.00044092389166292
 833    0.00045150863579461
 834     -0.48350902237406
 835    -0.0022584719350821
 836    0.00062992926326862
 837    -0.0028130499669038
 838    0.0011955644396969
 839     -0.28328330995978
 840    -0.0016873540334496
 841    -0.0016999098656573
 842    -0.0032852467766466
 843    -0.003772300886526
 844    0.0021380812391996
 845      0.10218443664784
 846    0.0024717657873744
 847    -0.0055871045021871
 848     0.010868646968603
 849    0.00084420514333695
 850    -0.018603193212745
 851     0.041571447060918
 852    -0.00034146140339303
 853    0.0003258172620306
 854    -0.00045247003477903
 855    4.8215399073136e-05
 856    -0.00035871698704436
 857     0.011304736477988
 858     0.017768863805713
 859      0.13858219297843
 860     0.011908130153732
 861    -0.011911985757209
 862    -0.0036358139928823
 863    -0.022786439386686
 864     0.029825979079032
 865    0.0066972156072117
 866    0.00027725947512652
 867     5.87699595188e-05
 868    -0.00028592292737225
 869    -1.0208427649145e-05
 870    0.00036725050401646
 871    -0.0022126083458873
 872     -0.04109208158943
 873    -6.9228340547186e-05
 874    -3.0784413487531e-05
 875    2.5978954197747e-05
 876    -0.011383226934994
 877     -0.12978451706158
 878    0.0010771528538205
 879    -0.00050727119152067
 880    0.00081724052618851
 881    -0.0046707143631904
 882    -0.032152915558981
 883    -0.00034012221384892
 884    0.00051254107331773
 885    -0.00043302832008846
 886    -0.0017669754480081
 887    -0.072674141838692
 888    5.3908522037222e-06
 889    -0.00064887511420623
 890    0.00042318710481327
 891    -0.0012963027387368
 892    -0.046293382799437
 893    0.0004528296458029
 894    -0.0002617390075276
 895    -5.5505744845886e-05
 896    0.0022847120875712
 897    -0.026817921403984
 898    0.00015591232779795
 899    5.1905582242304e-05
 900    0.00054729527222255
 901    0.00092021399991503
 902    -0.0023966438403491
 903    -0.011728255135269
 904    0.00014936123070537
 905    -0.0040874076318131
 906    -0.002348019646212
 907    -0.00083618696749248
 908    -0.014138742002407
 909    0.0087637002057145
 910    0.00015397097474179
 911    -0.00022216205130901
 912    1.0443894113911e-05
 913    0.0001435511666856
 914    -5.4521702270063e-05
 915    0.0032227867607687
 916    0.0037973627325539
 917     0.044810951166045
 918    -0.00034348242625331
 919    -0.0013564628743988
 920    -0.0042400185825266
 921    -7.0503249606339e-05
 922    0.0074475297415617
 923     0.016427860876559
 924    2.4546225745788e-05
 925    0.00032001372073101
 926    0.00019129725140923
 927    -1.7483838956786e-05
 928    -0.00013094684033037
 929    -0.0023211334835003
 930    -0.023654884597852
 931    -0.00028459872183819
 932    0.00034189941158048
 933    -0.00013096353370083
 934    -0.0012556433372236
 935    -0.0057074523584824
 936    0.0001004465122907
 937    0.00013209376332714
 938    -0.00056681277923091
 939    -0.002933096793705
 940    -0.045975737017979
 941    0.0010488622782756
 942    0.00012191506744464
 943    0.00027290569353296
 944    0.0029382418152523
 945     0.010935342330748
 946    0.00042201260780429
 947    -3.7711885072391e-05
 948    0.00010221024023695
 949    -0.0010542007551223
 950    -0.0074290948970197
 951    0.00017453174888193
 952    -8.9573076501718e-06
 953    -0.00045151384424579
 954    -0.0023142411492087
 955     0.026512437662904
 956    -4.7106163540722e-05
 957    -0.00031175989929248
 958    -0.00016495653619293
 959    -0.021466236963809
 960     0.020340364908586
 961      0.48481063187695
 962     0.051413825583737
 963     0.004739626314744
 964     0.027760960817578
 965      0.21346990292264
 966    -0.022405244193406
 967      0.10560789229926
 968    0.0011648590901481
 969    0.00050061830992533
 970    0.0017285705017499
 971    0.00013181331611117
 972    -0.002056234145291
 973     0.041826358750362
 974     0.062163486380657
 975      0.54856637550013
 976     0.016359497796622
 977    -0.054579443071005
 978    -0.024222858744752
 979    -0.029973177742784
 980      0.13447728078915
 981      0.05578857758283
 982    -0.0014266002229012
 983    0.0008438366487995
 984    -0.00060971331189267
 985     0.001198171109244
 986    -0.0003003344240478
 987    -0.016960858277632
 988    -0.025680994362052
 989    -0.00026797879791662
 990    0.00081561000732677
 991    0.0023874043039588
 992    -0.029713440990688
 993       -0.259082127604
 994    -0.0016961513993886
 995    -0.0011405503504739
 996    -0.00022743898480063
 997    -0.034194740320943
 998     -0.49120266809659
 999    -0.00075035104107371
 1000    0.0033719345020905
 1001    -0.00078679751431121
 1002    -0.0077937805405448
 1003     -0.14482220814311
 1004    0.00039861300786836
 1005    7.3043971723734e-05
 1006    -0.001393074672619
 1007    0.0010005724948187
 1008     -0.42204721004089
 1009    0.00024269610924069
 1010    -0.00057995108532938
 1011    0.0024370279711015
 1012    -0.0015983380246037
 1013     -0.12030538318332
 1014    -0.0013520005148396
 1015    -0.0021605910291095
 1016    4.5837871552394e-05
 1017    -0.0015968680517348
 1018    0.00088016247587331
 1019     0.042840632937283
 1020    -0.0015116378237481
 1021    0.0048890084688156
 1022    -0.0022188271763182
 1023    -0.0030819670494154
 1024     0.017680218064119
 1025    -0.0066051778386546
 1026    6.3214119115797e-05
 1027    0.00017655030209059
 1028    -0.00020541864881405
 1029    0.00015665888345521
 1030    -0.00014991993319898
 1031    0.0052901508805269
 1032     0.008319815841799
 1033     0.064725774344569
 1034    -0.0057656705851649
 1035    -0.0017879262796129
 1036    -0.0056538376452843
 1037     0.012054381712468
 1038    0.0038644556032919
 1039     0.013013652215818
 1040    -8.0440201046889e-05
 1041    -0.00015577855124294
 1042    -0.00012585369420164
 1043    -0.00011186669133949
 1044    -7.4741241462076e-05
 1045    -0.0014357399155988
 1046    -0.019901170355837
 1047    8.0571663039212e-05
 1048    -2.7064395937414e-06
 1049    6.2757027801895e-05
 1050    -0.0056761100716611
 1051    -0.060943687659714
 1052    -0.00042313928700214
 1053    0.00029837409269863
 1054    -0.00033123981147514
 1055     -0.00179463766276
 1056    -0.015010665821211
 1057    9.2968423359072e-05
 1058    -5.1761650264624e-05
 1059    0.00013475074030722
 1060    -0.00059686007694534
 1061    -0.028189933568648
 1062    -5.9898127027022e-05
 1063    0.00012951143910792
 1064    -0.00024778261916412
 1065    -0.00073687503767671
 1066    -0.021290875513084
 1067    -0.0002016401086246
 1068    1.2640488138117e-05
 1069    -0.00011936969435492
 1070    0.0010315081897317
 1071    -0.011727632183829
 1072    -6.2907741657298e-05
 1073    0.00027370326314343
 1074    -6.8647070620205e-06
 Sym= A
 Ene=    0.1002770376
 Spin= Alpha
 Occup=    0.00000
   1     0.019627295297388
   2    0.0028394837128242
   3    -0.012822219550848
   4    -0.077168468610011
   5    -0.036816804884332
   6    -0.00045967567888824
   7    0.0017035013456567
   8    -0.037608595865142
   9    -0.00045748153371709
  10     0.001786717963844
  11     0.093496463272511
  12    0.0041187703060945
  13    0.0012201181132262
  14      0.24693324278547
  15    -0.015836629236155
  16    -0.035724913670337
  17     0.012496579367162
  18    -0.0026675522512707
  19    -0.0044994335870468
  20    -0.020361533331788
  21    -0.0059705333797442
  22    -0.0058571843649458
  23    0.0040806303362469
  24    0.0058016944238112
  25      0.01250051514732
  26     0.010510927727156
  27     0.015951893558733
  28     0.015063783890212
  29    0.00082801498588349
  30     -0.22598828055611
  31     0.010934831320516
  32    -0.0078049887244462
  33    -0.0043064720078081
  34     0.013544355076112
  35    -0.0097173475319319
  36    -0.0053095809463356
  37    -0.032588807227921
  38     0.023737058886545
  39       0.0143138058619
  40     -0.07276707119616
  41     0.035976378309281
  42     0.012915816381331
  43      0.01441754930461
  44    -0.00066106102026015
  45     0.003875049979071
  46     -0.02690163440219
  47    0.0014118043350411
  48    -0.017761628333567
  49    0.0014007547122548
  50    -0.0063345679702993
  51     0.035387462692262
  52    -0.0010474797751096
  53    -0.026094384983574
  54    -0.027108873124352
  55     0.081376322454403
  56     0.021269589919817
  57    -0.0091818250829492
  58    -0.011207443448736
  59    -0.0074636907219488
  60    -0.010964012764702
  61    -0.013522125457821
  62    -0.0090002720869542
  63     0.036791543375006
  64     0.041585343005283
  65     0.028793802215268
  66    -0.014993053318775
  67    0.0078015378457384
  68    0.00051288863226573
  69    0.0039474706798685
  70     0.010604302918014
  71    0.0020805992483411
  72    0.0064901879861617
  73    0.0087595125697014
  74    -0.0060024195353911
  75    -0.015717461425481
  76    -0.0048382806468602
  77    -0.0093287317376433
  78    -0.012813990388339
  79    -0.020114784559787
  80     -0.02067979503982
  81     0.061965348406759
  82     0.014203531004696
  83    -0.0097429477342064
  84     -0.01303267874263
  85    -0.007138411745567
  86    -0.011972678528564
  87    -0.016237285282124
  88    -0.0085911501323095
  89     0.032158672812143
  90     0.038419585004449
  91     0.026458642274356
  92      0.01246368795388
  93     0.051238812009245
  94    -0.0013643183860821
  95    -0.0047414026957041
  96    0.0079647301606593
  97    0.0036084910218892
  98    -0.001764236744039
  99    0.0078156223549626
 100    0.0086065091669798
 101    -0.010295062628587
 102    -0.0066680319791264
 103    0.0027157481654041
 104    -0.012754598084082
 105    -0.021123020877666
 106    -0.020760043969299
 107     0.035026587499641
 108      0.12803528683725
 109    -0.017915709671508
 110     -0.00165804766508
 111    0.0014579086898982
 112    -0.022548010047196
 113    -0.0020210142545973
 114    0.0018348756810872
 115      0.04512168634702
 116     0.005463287122124
 117    -0.0032194995469518
 118      0.15094093325121
 119    0.0038217758131693
 120    -0.012964943155725
 121    -0.0045011023455943
 122    0.00022066696374554
 123    -0.00096643429006479
 124    0.0073558404287403
 125    -0.00076222232559936
 126     0.004381658083866
 127    -0.0011024401982671
 128    0.00070293192943826
 129    -0.0070260714865021
 130    0.0013659822267859
 131    -0.0063979507321866
 132    -0.0066501750168487
 133     0.020587234497675
 134    -0.0018943552309976
 135    0.0021194435593836
 136    -0.0016365085678957
 137    -0.0016258061857181
 138    0.0027462608584073
 139    -0.0020390857875058
 140    -0.001973981791058
 141    -0.003863538155489
 142    0.0043068939379454
 143      0.00573597889473
 144    -0.028690744505569
 145    0.0083923160887477
 146    0.0055796804393733
 147    0.00058732534494172
 148    5.2269512632746e-05
 149    0.0015374046097603
 150    0.0014248398380274
 151    -0.004918922330342
 152    -0.0015242040956441
 153    0.00059316763260908
 154    -0.0020309050065989
 155    -0.0027095814765522
 156    0.0051830207323082
 157    -0.0080373718467317
 158    -0.0085005607673864
 159     0.029248127853839
 160    -0.011468476589934
 161    0.0022253713784472
 162    -0.0037668701306355
 163    0.00042706113129213
 164    0.0029537153270814
 165    -0.0045981404656942
 166    0.00049657467075102
 167    -0.0024442419724116
 168     0.012729190035683
 169    -0.0020061333501661
 170    -0.037834573132682
 171     0.012597976963716
 172    -0.0031436611650585
 173    -0.0032293905248248
 174    -0.0057585614547008
 175    0.0011442686275638
 176    -0.00018942608189382
 177      -0.0003726891489
 178     0.004984506472957
 179    0.0068865407069159
 180    -0.0013052067380993
 181    0.00067892697416345
 182    -0.00012097663671414
 183    0.00075953523288849
 184    -7.469787239827e-05
 185     0.006752426823394
 186    -0.022314422878679
 187     0.052465414495068
 188    -0.00042163925194586
 189    -0.0060055118286191
 190     0.053792331153143
 191    -0.00046111696763884
 192    -0.006190790323941
 193     -0.13715153702476
 194    -7.2139458282492e-05
 195     0.006234277586144
 196     -0.35107895537043
 197    -6.9117451376219e-05
 198      0.09283236275437
 199    6.9097493889589e-06
 200    0.0037506274710551
 201    -0.0025310224440661
 202    -0.0011556454058867
 203    0.0053242449709034
 204    0.0020487700642293
 205    -0.008781303231841
 206    0.0031886884240427
 207    0.0048614278248749
 208    -0.011393885754745
 209    -0.026058360926928
 210      -0.0256178691462
 211     0.032054543108454
 212      0.22860737635645
 213     0.011038118327446
 214    0.0010258460162793
 215    0.0041055162432068
 216        0.013697249065
 217      0.00132412086813
 218    0.0052230516526397
 219    -0.032303517149779
 220    -0.0019678849704925
 221    -0.0096751052812935
 222    -0.077110340644868
 223    -0.013746264812696
 224    -0.038980497036896
 225    -0.014361332955607
 226    0.0031545970325325
 227    -0.0010474129034107
 228      0.02172168882473
 229    0.00031620266154205
 230     0.018770832948798
 231    -0.0028364680967538
 232    0.0014716407201739
 233    -0.027019325716219
 234    0.00062685016650195
 235    -0.012108266837885
 236    -0.012043583613006
 237     0.022831367504971
 238     0.044764173865858
 239    0.0049577131735189
 240    -0.0045578394741131
 241    -0.0018993927316721
 242    0.0061437333031318
 243    -0.0053875342881133
 244    -0.0023504359793126
 245    -0.013225023248175
 246     0.019512253205176
 247    0.0047906294143308
 248    -0.027217654292132
 249    -0.0086487337197224
 250      0.01680229706961
 251    -0.00021971898331349
 252    -0.00056029290125102
 253    0.0028977204022936
 254    0.0047365664917808
 255    -0.011042168595105
 256    0.0029454338317717
 257    -0.0015570718803462
 258    -0.0046527929756017
 259    -0.0067813780679698
 260      0.01628692991668
 261    0.0069904003713404
 262    0.0071514117924839
 263    -0.016939821359072
 264    -0.030526538372313
 265    0.0021472466282825
 266    0.0026763054444352
 267    -0.0013622202421371
 268    0.0027731571099091
 269    0.0032799595251823
 270    -0.0017800394389143
 271    -0.0022148628571552
 272    -0.0089383999802198
 273    0.0017961381121349
 274    -0.026972229466223
 275    -0.009817743607762
 276     0.027865706423539
 277    0.00066880542448049
 278    -0.010004103565509
 279     0.001132067232701
 280    0.0015436837480205
 281    0.0025182069334369
 282    -0.0024392695135447
 283     0.014174366400417
 284    -0.0013897275226087
 285    -0.0022824891080655
 286    -0.0071211209410637
 287    -0.00093924327157704
 288    -0.00085264093282006
 289    -0.00039211110570824
 290    0.0096502217448217
 291    -0.0010507512628773
 292    -0.00049111625061744
 293    0.00089010061047835
 294    -0.0015066734213946
 295    -0.00064562978199899
 296    0.0011659015048065
 297    -0.00067978550683278
 298    0.0004388895548122
 299    -0.0012710420740799
 300     0.030405177671455
 301    0.0096152640206055
 302    -0.013293317139665
 303    -0.00066580807069998
 304    0.0015158003376624
 305    -0.00085885698596532
 306    -0.00023721488939586
 307     0.006907577591289
 308    0.00066216543300329
 309    -0.0018325024580797
 310    0.00039237206309892
 311    -0.00023455280694776
 312    -0.0084595096527706
 313    -0.005100348586038
 314    -0.0049000515272655
 315    0.0039196608398412
 316     0.047004082992662
 317    -0.0010364653548061
 318    -0.00091084963911754
 319    -0.0024818304617418
 320    -0.0014582712721284
 321    -0.0011320460512146
 322    -0.0031899158058985
 323    -0.00021662471614195
 324    0.0028872578106904
 325    0.0045682858170862
 326     0.029228887796096
 327    0.0037618046652531
 328     0.038610969678184
 329    0.0014227493868917
 330    0.0071052587506014
 331    0.0010248729499481
 332    -0.00021151666110704
 333    0.0015286940368223
 334    -0.00072400880686776
 335    -0.0085817894935056
 336    -0.0016783722945615
 337    0.0004211139592863
 338    -0.0019280565641037
 339    -0.019178758516655
 340    -0.0030818854651775
 341     0.020324049124119
 342      0.05630623466969
 343    -0.036724218875798
 344    0.00097306995933947
 345    0.0021579879352509
 346     -0.03751935477146
 347    0.00097063081852139
 348    0.0021837200450712
 349     0.095952482764687
 350    -0.006346112497407
 351    -0.0093834023522046
 352      0.21732370777525
 353     0.014173478847492
 354    0.0096229379260174
 355    -0.0089122709235478
 356    -0.002491956053216
 357    0.0025515667949495
 358      0.01738208408703
 359    0.0018920618648289
 360    0.0059645676073195
 361    0.0061989413792984
 362    -0.0034061680336898
 363    -0.010434794550145
 364    -0.00015210765887159
 365     0.017319428613661
 366     0.016978515395849
 367    -0.028371516929449
 368     -0.10385990290398
 369    -0.015877501001178
 370    -0.0033362639592631
 371    -0.001223320232201
 372    -0.019979709978419
 373    -0.004172391796226
 374     -0.00157738729111
 375     0.040287737987016
 376    0.0087577629964847
 377    0.0025532652645433
 378      0.12807185968409
 379     0.023220271005717
 380     0.012775628548845
 381    0.0038670326977285
 382    -0.0022457999077655
 383    0.00012216573020069
 384    -0.0069546467645999
 385    -0.0018738379100986
 386    -0.0039464771540838
 387    0.0030830226783879
 388    0.00017956037361304
 389    0.0075076130045582
 390    0.0016648125953149
 391    0.0087374364688525
 392     0.009010078596231
 393    -0.027427985727131
 394    -0.0041738288927471
 395    -0.0027570277750177
 396    0.0048621930663607
 397     0.006598172829529
 398    -0.0033055617260991
 399      0.00591226195338
 400    0.0082150891085606
 401     0.010894857870108
 402     -0.01699110870573
 403    -0.019620851174383
 404     -0.01082379076014
 405    -0.0057098506909335
 406    -0.025512458655772
 407    -0.0028246779041661
 408    0.0042001226653726
 409    -0.0020009312730685
 410    -0.001860034007038
 411    0.0061037392889765
 412    0.0048769037385793
 413    -0.0068609567690823
 414     0.003841994335697
 415    0.0032706390246649
 416    -0.0076348078805058
 417     0.012372837251716
 418     0.012834850326112
 419    -0.037975628437493
 420    -0.011276635133914
 421    -0.003389839739403
 422    0.0038738988102893
 423    0.0066857792283705
 424    -0.0039415351173368
 425     0.004667460421711
 426    0.0081147543590616
 427     0.015747773755658
 428     -0.01496570524503
 429    -0.023969567597543
 430    -0.019838908423014
 431    -0.0010226935054189
 432    -0.0088104756684324
 433    0.0048457572907614
 434    0.0069266096054089
 435    -0.0010960346383564
 436    0.00085163157099709
 437    0.0054571433221557
 438    -0.0072685754761229
 439    -0.0097492320826033
 440    0.0025298522249005
 441    -0.0016046196070777
 442    -0.0084086732858199
 443    0.0057954849883425
 444    0.0061158909786135
 445    -0.020242074505695
 446    0.0039408345603314
 447    0.0029132428118552
 448    4.6587181399172e-05
 449    0.0016583212368085
 450    0.0037661434824882
 451    0.00011044429496222
 452    0.0020173643291754
 453    -0.0058521023791309
 454    0.00098381848213686
 455    -0.0057910888902349
 456    -0.032275081261173
 457    -0.0033035717286617
 458     -0.00437723436872
 459    -0.00094985895053659
 460    0.00035236245578329
 461    -0.0003052237151977
 462    -0.0013908411816731
 463    -0.0063822606776378
 464    0.0018066497146326
 465    -0.0012366887582111
 466    0.00021629327583918
 467    0.0019704786910151
 468    0.0087313876454818
 469    0.0049269017616273
 470    0.0050608932821541
 471    -0.014542981506756
 472    -0.00096338554945774
 473    0.0029489481712163
 474    0.00027061454915666
 475    0.0014839258960981
 476    0.0037516584852065
 477    0.00032905697915283
 478    0.0018632664142983
 479    -0.0070390665906547
 480    -0.00083124482573342
 481    -0.0037092133090237
 482    -0.028237028664152
 483    -0.0029928372351612
 484    -0.0084251808289043
 485    0.00095280166580975
 486    -0.005347954888065
 487    -0.00052089491411138
 488    -0.00054380330179918
 489    0.00030372085560676
 490    -0.0018227343150784
 491    0.0063853967801896
 492    0.0005325409393792
 493    0.00058159660873068
 494    6.096229027288e-05
 495    -0.0027738701352604
 496     0.002899587539372
 497     0.059925682705524
 498    -0.0055831092770994
 499    -0.0011388465631484
 500    -0.0028505671651282
 501    -0.022119035124773
 502    -0.0010360402663576
 503    -0.0036022961019595
 504    0.00010690131027152
 505    0.00012508772116756
 506    0.00038864673436413
 507    -0.0001573631723334
 508    0.00018432247630058
 509    0.0071012030516157
 510    0.0095340784877408
 511      0.10093933775632
 512    -0.00066788244764344
 513    -0.007419460021236
 514    -0.0058190736245132
 515    0.0045826704780998
 516     0.017935997258558
 517     0.014515798534528
 518    -0.00014453890938783
 519    0.00024650018553804
 520    -0.00014502685194083
 521    0.00034697115252988
 522    0.00024236482106822
 523    -0.0038768081864999
 524    -0.041145684576347
 525    0.00065287089255213
 526    0.00040097535300512
 527    0.00025747929658317
 528    -0.0076357773159283
 529    -0.096711051968069
 530    -0.0014152129546995
 531    -0.00063955577079166
 532    -0.00067918969748558
 533    -0.0035122549322382
 534    -0.033778847887139
 535    0.00060079672959411
 536    0.00019616094484806
 537    0.00034638950276873
 538    -0.0015418790084923
 539    -0.034933552415957
 540    -4.5231558180587e-05
 541    -0.00035364079131193
 542    -0.00027038788502554
 543    -0.0016456028365608
 544    -0.031124451409227
 545    -0.00013221830849339
 546    -0.00019688546506983
 547    -0.0001920486569463
 548    0.0026278365988962
 549     -0.01303750892333
 550    -0.00030936867649718
 551    6.0695381861989e-05
 552    -1.5373978201077e-05
 553    0.00073198359270281
 554    -0.0040531287188474
 555     0.018219147292764
 556    0.0010378136987236
 557    -0.0054050764089844
 558    -0.0012318477891162
 559     0.012156434178218
 560    -0.0028045821389354
 561    -0.0029815357635917
 562    -0.00028847302930159
 563    -0.00015970859314954
 564    -0.00015541787754998
 565    -0.00021102465243991
 566    3.134698261341e-05
 567    0.0063586294255298
 568    0.0079182502872425
 569     0.093974718997406
 570    0.00055448776977036
 571    -0.0069234267581573
 572    -0.0022263390302646
 573    -0.0016006676073852
 574     0.020706924398464
 575    0.0047402058648195
 576    0.00020502685098965
 577    -0.00018818620395791
 578    -8.3486938364151e-05
 579    0.00016859050130017
 580    0.00035733331800514
 581    -0.0029462943949454
 582    -0.031741016691061
 583    -0.00043077536077738
 584    -0.00019944060821472
 585    -0.00040685327627801
 586    -0.0029081124502705
 587    -0.034360076642406
 588    -9.0077693346815e-05
 589    -0.00031204712716858
 590    0.00039392366924344
 591    -0.0040810385302886
 592    -0.084734790299098
 593    0.0012872858326911
 594    9.6602605108651e-05
 595    -0.00024091264002889
 596    0.0044629305391842
 597    0.0008765123990692
 598    0.00027143263757168
 599    2.7577643597871e-05
 600    8.3105542067847e-05
 601    -0.0032200768753607
 602    -0.0039222128656059
 603    0.00039602417662483
 604    -0.00027884488288962
 605    0.00013379292011489
 606    -0.00078256002326504
 607    -0.018049827501796
 608    0.00043686432147325
 609    0.00014141438822349
 610    -0.00037426144551569
 611    0.0013343858189985
 612    -0.00096872783324141
 613    -0.026631694540903
 614    -0.0012248824037853
 615    0.0010500842379724
 616     0.003924312441365
 617    -0.0047439426066381
 618    0.0051267173765117
 619     0.010396444790783
 620    -8.2336824939786e-05
 621    -5.1873823296174e-05
 622    -0.00010527957166606
 623    -4.2247551428405e-05
 624    1.2182416346037e-05
 625    -0.0040783792759039
 626    -0.0055167010440319
 627    -0.060908971298896
 628    0.0010560645761766
 629    0.0034671190478439
 630    0.0030282337042206
 631    -0.004037599800074
 632    -0.012385020277569
 633    -0.0025780735302607
 634    -3.8463226524663e-05
 635    3.6066146103115e-05
 636    -0.00014639484412768
 637    -0.00031723822964868
 638    0.00013118375262259
 639    -0.00029422960878268
 640     0.018835120390192
 641    0.00015309900127318
 642    -0.0005401735730465
 643    -0.00026040675063354
 644    0.00069678039044578
 645     0.029509961693003
 646    -0.00023927063710346
 647    -0.0003145517285186
 648    -0.00018780546210263
 649    0.0059668471180144
 650     0.061142118461258
 651    2.0404547763274e-05
 652    -2.8495611152568e-05
 653    0.00042160108565592
 654    -0.0002972041074599
 655     0.016174215738324
 656    -1.3521672155568e-05
 657    -2.9668278718229e-06
 658    0.0003086339637331
 659    0.00049801835838506
 660     0.014382940817311
 661    6.2883116853988e-05
 662    0.00018466538917628
 663    3.9057526013629e-05
 664    -0.00043093657224502
 665    0.0069213676627979
 666    -0.00016911195656944
 667    0.00021474971801043
 668    3.7807256341261e-05
 669    0.0031747308360436
 670    -0.0017368767302838
 671    -0.091418423650643
 672    0.0040761160621779
 673    0.0068117021057311
 674    -0.004227482375044
 675      0.01933314026922
 676     0.018655236389997
 677    -0.016357263314652
 678    0.00021486225453149
 679    -0.00016391753917228
 680    -0.00012057848331667
 681    0.00017629754501188
 682    -0.00030687016657123
 683    -0.0083773956181091
 684    -0.010387172856274
 685     -0.12492209236088
 686    0.0020594956424965
 687    0.0070093194676146
 688     0.008829299781815
 689    -0.0048928558387482
 690     -0.02886904940787
 691    -0.019721004645069
 692    -2.2100382729605e-05
 693    -0.00013449113376702
 694    0.00038894346252156
 695    5.9077879101975e-06
 696    0.00012560424135624
 697      0.00363977430764
 698      0.01982762714456
 699    -0.00034778631726768
 700    -0.00031751170518227
 701    0.00038998722972842
 702    0.0069926208083623
 703     0.097968640539488
 704    0.0012835689557275
 705    -0.0010930965320689
 706    0.00065843313564289
 707    0.0050780761994685
 708      0.08170178821459
 709    -0.0005189091300683
 710    0.00044186739777742
 711    -0.00069975449968376
 712    -0.00042159033256565
 713     0.022574454659979
 714    0.00013747750952632
 715    -2.857320295972e-05
 716    0.00022979073515271
 717    0.0021758881558979
 718     0.060826865908124
 719    0.00032334034349041
 720    0.0003659164447168
 721    -0.00029820363028179
 722    -0.0021515046916192
 723     0.037194744872408
 724    0.00030309065023174
 725    0.00027071732350442
 726    7.307925977824e-05
 727    -0.0011487891060673
 728     0.005097504482321
 729    -0.011999541875275
 730    -0.0012716660294782
 731    0.00022299685157532
 732    0.0028261608502799
 733    0.0070850966098666
 734    0.00011024616825958
 735    -0.0016720869623799
 736    2.618632680491e-05
 737    0.00019550795774262
 738    0.0001693415134073
 739    -0.00018455836423784
 740    -0.0001379888014089
 741    -0.0016221044217302
 742    -0.000587808649941
 743    -0.036873007484119
 744    0.0038448371501357
 745    2.0572608877329e-05
 746    -0.00094314684597076
 747    -0.0083482530593102
 748    0.0020258246900754
 749    -0.0018483197828846
 750    0.00012186321203027
 751    0.00040826221693576
 752    0.0001440096511015
 753    8.1264680095982e-05
 754    -0.0001185337943023
 755    0.0011137660916342
 756     0.031038121978798
 757    -0.00060052998457791
 758    0.00044975417375248
 759    0.00011337323514391
 760    0.00042192114709594
 761     0.011341575878876
 762    -3.3825727987277e-05
 763    -0.00020834218558543
 764    0.00040095823123928
 765    -0.0013043639089362
 766     0.024435108861226
 767     0.001408237884572
 768    0.00033797163922436
 769    -0.00040260630959737
 770    -0.0028128504324356
 771    -0.0035498877789497
 772    -2.1879671280024e-05
 773    -0.00010585432991725
 774    -0.00012639813694813
 775    0.0021832081432379
 776    0.0051319140299705
 777    0.00046629946766512
 778    -0.0002983443823731
 779    0.00016909755258764
 780    0.00054774247069477
 781     0.011824911444324
 782    0.0004551337891644
 783    0.00038434395539566
 784    -0.00029234841832095
 785    0.0041205948771268
 786    0.00079906200333054
 787     -0.20159413789763
 788     0.028754934782608
 789     0.011771406139818
 790     0.013515819617862
 791     0.084405583673467
 792     0.040497529237906
 793     0.022865946889014
 794    0.00075848039317457
 795    -0.0020692893466672
 796    -0.0011663096451853
 797    -0.0014806196892843
 798    -0.00089885966864692
 799     -0.04490896140783
 800    -0.072582792871086
 801     -0.54531445655727
 802    0.0068746561429523
 803     0.028033268720986
 804     0.043152554211632
 805    -0.025365624597451
 806    -0.079067268842081
 807     -0.10849078017609
 808    -0.00068052443452973
 809    0.00014763357191054
 810    -0.00021364907113042
 811    0.00011669839309483
 812    -0.00054875840538113
 813     0.022615358975216
 814     0.083469215706284
 815    0.0011714128384516
 816    -0.00087629630868269
 817    0.00068045863343602
 818      0.02854916466549
 819       0.2922109999429
 820    -0.00095554774010783
 821    -0.00066667366631569
 822    0.0010876427366617
 823      0.02701832655925
 824      0.43883275023672
 825    0.00041209986263078
 826    0.0003801813754388
 827    -0.001818859618202
 828    -0.0032011917657451
 829     0.058233864449505
 830    0.0023400567888945
 831    0.00088914255310715
 832    -0.00020018420793067
 833    -0.001902620859189
 834      0.10017689734159
 835      0.00223444007496
 836    -0.00010755955773679
 837    0.0010193466552339
 838    -0.0035365419699315
 839      0.14301089165578
 840     0.002606619844084
 841    0.0014992198375337
 842    0.0018505135317921
 843    0.0022925553475304
 844    -0.0011289670330671
 845    -0.065703473857923
 846    -0.0012261138739573
 847    0.0035288629365248
 848    -0.0065043558875366
 849    0.0033653480608878
 850      0.01324262026641
 851    -0.027291333041712
 852    0.0001664035282066
 853    -0.00014674141260169
 854    0.00024405642918762
 855    -4.4381484436976e-05
 856    0.00017032699853544
 857    -0.0057344836987378
 858    -0.0092438941982455
 859    -0.068694417455849
 860    -0.0052443594774743
 861    0.0057220657567387
 862    0.0013552705669018
 863    0.0073651521168354
 864    -0.015057916778678
 865    -0.00056715150693884
 866    -0.00013558237520721
 867    8.4471488608829e-05
 868    7.823348761054e-05
 869    3.7216493907621e-05
 870    -0.00030645510707457
 871    -6.251606051689e-05
 872     0.018649515364266
 873    2.5165661996646e-05
 874    0.00028659441075148
 875    -1.6969557103079e-05
 876    0.0044729831899563
 877     0.058310340140257
 878    -0.00069933710673506
 879    0.00023600819520278
 880    -0.00068813864253336
 881    0.0026414834485295
 882     0.017876060351922
 883    0.00035753052076417
 884    -0.00056470399655168
 885    0.00057061877838686
 886    0.0013369268365071
 887     0.051664880357868
 888    0.00010691376285201
 889    0.00045471362146261
 890    -0.00039437878221387
 891    0.00051876039540999
 892     0.027259198661814
 893    -0.00027751618688176
 894     0.000106866781439
 895    8.9976991480803e-05
 896    -0.0013244084122761
 897     0.016261452297375
 898    -0.00010653260087138
 899    -0.0001059954995975
 900    -0.00022093074698926
 901    -0.0036197365154979
 902    0.00074977284141761
 903      0.11165042490905
 904    0.0058446304440755
 905    0.0032351698466599
 906    -0.0097215597768581
 907     0.025795838961511
 908     0.013954222833729
 909    -0.012644236820788
 910    0.00039990899714388
 911    -0.00070455537814892
 912    0.00015913987729884
 913    0.00023473956232276
 914    -0.00019780665155471
 915      0.01342983907413
 916     0.016312581135437
 917       0.1981733247284
 918    0.0022102879959197
 919    -0.012834929138081
 920    -0.013388510122532
 921    -0.0071340057064329
 922     0.031393974329502
 923     0.054470737068012
 924    7.6162815390168e-05
 925    0.00038920373369164
 926    -0.00036713866511168
 927    -2.4353069747257e-05
 928    -0.00025840572774593
 929    -0.0084862928882143
 930     -0.12633175703673
 931    -0.00095214935989689
 932     0.001200439769671
 933    -0.00068817058820473
 934    -0.0061962211046754
 935    -0.024264958190482
 936    -0.00042151080407853
 937    -0.00036654712710294
 938    -9.2231457244743e-05
 939    -0.011890833195397
 940      -0.1707039477872
 941    0.0026011692022527
 942    -0.00081563594744686
 943    0.0019174462490332
 944    0.0049724855148609
 945     -0.03661899620426
 946    0.00081312583565281
 947    -0.00015999681294704
 948    -0.00018896933535165
 949    -0.00058339451850362
 950     -0.03284442989174
 951    0.00023631689751388
 952    -0.00027634095594582
 953    -0.00042661500146454
 954    -0.0046264548289356
 955    -0.063016508139047
 956    0.00037216053220639
 957    0.00021717090054671
 958    -0.00067576833660757
 959    -0.019181613247764
 960     0.015348489655616
 961      0.55789946805769
 962      0.07423039650473
 963    -0.014322822958193
 964     0.008949416670651
 965      0.26717748322261
 966    -0.053002553031842
 967    0.0085196050560929
 968    -0.0010506821869211
 969    -0.00091763043408944
 970    0.0018960594035915
 971    0.0024276901875074
 972    -0.0042988645217767
 973     0.087904731135582
 974      0.13783413438751
 975       1.1035790207737
 976     0.023822678402334
 977    -0.096799092991331
 978    -0.046502487976072
 979    -0.065607919351082
 980      0.24147869829948
 981      0.12655685339554
 982    -0.0015351854858017
 983    -8.1307900132878e-05
 984    -0.00012508644268125
 985    -9.4814840459231e-05
 986    -0.00020396062753995
 987    -0.040862323311116
 988     -0.12779663338783
 989    0.00092755302847697
 990    -0.00032072107053648
 991    0.0029250471478267
 992    -0.059400936959591
 993     -0.53875267248475
 994    -0.0024785138830202
 995    -0.0023453656813976
 996    0.00061308426661171
 997    -0.059299932629676
 998     -0.92746310837602
 999    -8.6060073520791e-05
 1000    0.0050001313444403
 1001    -0.001087134601985
 1002    0.00022776332499809
 1003     -0.17914138826604
 1004    0.0034132754254712
 1005    0.00040714694413578
 1006    -0.0012099290444929
 1007    0.0014087953137676
 1008      -0.3644378546927
 1009    0.0030889974715704
 1010    -0.0019848453527988
 1011    0.00073972523460776
 1012    0.0018672915541881
 1013     -0.29279247789725
 1014    0.0034614870162359
 1015    -0.0030796222082098
 1016    -0.0019379661534009
 1017    -0.004521279876462
 1018     0.002963531384005
 1019      0.12172753386632
 1020    -0.0032113611307406
 1021     0.012110950458037
 1022    -0.0058485877095206
 1023    -0.0018627134126383
 1024     0.049659872256479
 1025    -0.020998173336006
 1026    0.00012193577625486
 1027    0.00039600946778639
 1028    -0.00050344267203223
 1029    0.00035658874012401
 1030    -0.00030310239662266
 1031     0.011636299145212
 1032     0.018599694716451
 1033      0.14082529378838
 1034    -0.011493318019601
 1035    -0.003462711096592
 1036    -0.012181109864591
 1037     0.020593772640822
 1038    0.0038459031003907
 1039      0.02928893231193
 1040    -0.00015419890987642
 1041    -0.000488489565382
 1042    -0.00023596193949753
 1043    -0.00030415673837581
 1044    -3.9620920094887e-05
 1045    -0.0015981130892191
 1046    -0.040989733843949
 1047    0.00019859670640702
 1048    -0.00012210419610675
 1049    -0.00015915690931773
 1050    -0.010838679004075
 1051     -0.12409371497557
 1052    -0.0011447184587444
 1053    0.0010641683553084
 1054    -0.00063492525736125
 1055    -0.004701138579485
 1056    -0.035405106216693
 1057    0.00054707602841527
 1058    -0.00074350013444338
 1059    0.00077240538564926
 1060    -0.0019854639900666
 1061     -0.08780913653567
 1062    5.1335698443299e-05
 1063    0.00055636073786086
 1064    -0.00074857980138643
 1065    -0.0015953657230782
 1066    -0.055493817012803
 1067    -0.00051431500236692
 1068    -8.896012498028e-05
 1069    -0.00019460650394557
 1070    0.0026459354393268
 1071    -0.032967874774159
 1072    -0.00017804606858186
 1073    0.00048387447185941
 1074    9.9286925075426e-05
 Sym= A
 Ene=    0.1110355178
 Spin= Alpha
 Occup=    0.00000
   1    -0.054787889980372
   2    -0.0098156171783283
   3     0.081504590976598
   4      0.11199260036665
   5     0.072774588116452
   6      0.01218579789964
   7     0.016708155351329
   8     0.074383042603271
   9      0.01241922987761
  10     0.017099259149189
  11     -0.19580957489456
  12    -0.035328447250676
  13    -0.041882569186372
  14     -0.40991778885951
  15    -0.056712320889169
  16     -0.11495468013225
  17    -0.020229919484579
  18    -0.0022419167207584
  19    -0.0055760052261828
  20     0.032464886775402
  21    0.0037824945441801
  22    0.0092942425195341
  23    -0.00070390131706101
  24    0.0034006791823712
  25    -0.011352065589428
  26    -0.0080425430625836
  27    -0.061027736287498
  28    -0.060659776795768
  29     0.095553514717022
  30      0.45121506058572
  31    -0.025000572463167
  32    0.0033801068043139
  33    0.0042107899533566
  34    -0.031315412622509
  35    0.0043426383899859
  36    0.0053469873317821
  37     0.067426732725647
  38    -0.0068129180864619
  39    -0.010145354815223
  40      0.20151989487117
  41    -0.043637410276252
  42     -0.03884608424049
  43    -0.028250297331434
  44    -0.0068243202670651
  45    0.0013492890441554
  46     0.045598109901244
  47    -0.0082879924555297
  48     0.037695875894823
  49    0.0081353638175234
  50    -0.002808165763391
  51    -0.059579970548928
  52      0.01101780031419
  53    -0.014343891209921
  54    -0.015179822851121
  55     0.049216285829724
  56     0.014399523224377
  57    -0.0082589873589737
  58    0.0015846012471017
  59    -0.004145186277592
  60    -0.010226201952904
  61    0.0021439238559241
  62    -0.0050629788289664
  63     0.026449710888709
  64    -0.0015425749892755
  65     0.014776474317964
  66     0.037525649514271
  67    -0.029380007851588
  68    0.0058256726354343
  69    -0.0018547175593752
  70    0.0056146493450448
  71    7.932497019627e-05
  72    6.7058226576328e-05
  73    -0.011717315996475
  74    0.0028867296402735
  75    -0.0080453904372378
  76    -0.001321719215143
  77    -0.00081864335205989
  78     0.016191245370279
  79    -0.011768045783175
  80    -0.012020801332165
  81     0.031343764672063
  82     0.039261152301749
  83    -0.010029146177857
  84    -0.0061074562418766
  85    0.0058840534475087
  86    -0.012622611490557
  87    -0.0076674150105208
  88    0.0074466505727037
  89     0.026742320918968
  90     0.016989268497656
  91    -0.014459009951291
  92     0.069211690001646
  93     0.028746409710984
  94    -0.054462960523476
  95    0.0033426571825863
  96    -0.0093088730060537
  97    0.0015481238369758
  98    -0.00037765027270572
  99    0.0028956936777652
 100     -0.00322692308533
 101      0.01110709684279
 102    -0.0029519928179358
 103    0.00062294380504365
 104    -0.0048742157067015
 105     0.030244801712947
 106     0.029627096587083
 107    -0.046388221067054
 108     -0.19874196812484
 109     0.031047552239219
 110    -0.0050581734451589
 111    -0.0052418485835734
 112     0.039083993010356
 113    -0.006463899901918
 114    -0.0065351220970712
 115    -0.078841568826897
 116     0.011723373290141
 117     0.014604193291889
 118     -0.25244821720107
 119     0.041540855519543
 120     0.036012891760427
 121    0.0096242134072346
 122    0.0051134679821027
 123    -0.0020183480277934
 124    -0.016971914836752
 125    0.0048740027710178
 126    -0.011272051042725
 127    -0.0052877916120213
 128    0.0029850021668867
 129     0.019555243596236
 130    -0.0067508710849624
 131    0.0088384889078469
 132    0.0089211668565521
 133    -0.021390155973286
 134    -0.021729665068273
 135    -0.0053115506156109
 136    0.0021492944762736
 137    -0.0032872640880536
 138    -0.0069221027365852
 139    0.0028200038642937
 140    -0.0041282073469765
 141    0.0096572112859691
 142    -0.0030162704906262
 143    0.0089806003302368
 144     0.064021014854447
 145    -0.027140919484453
 146     0.021257785591013
 147    6.1853656517851e-05
 148    -0.0029300660405272
 149    0.0039663474606936
 150    -0.00090352754558538
 151     0.011270955969445
 152    -7.6743899847763e-05
 153    0.0035546254605614
 154    -0.0056170130798418
 155    0.0015277423646301
 156     -0.01436776798757
 157     0.010541747697722
 158     0.010713400294233
 159     -0.02446684727773
 160    -0.041375330632016
 161    -0.0039833012253305
 162    -0.003345241314708
 163    0.0039901162159059
 164    -0.0052694122426551
 165    -0.0042808531151307
 166    0.0051653190957001
 167    0.0058846080069175
 168    0.0077714155717773
 169    -0.0073086613094655
 170     0.059031737542377
 171     0.028298491351878
 172    -0.052174755503001
 173    -0.0017809243719944
 174     0.013111576090519
 175    0.0039008086607597
 176    -0.00030645961995779
 177    -0.0043137095483442
 178    0.0010954910354199
 179    -0.018098271421603
 180    -0.0058982826618414
 181    0.00047254459465617
 182    0.0059597966959604
 183    0.0031578768064709
 184    0.00056580279958146
 185    -0.0049718797636135
 186    -0.0046851142330085
 187     -0.12312136121063
 188    -0.012193551889953
 189    -0.004526595434901
 190     -0.12612091165093
 191    -0.012514136188618
 192    -0.0046398449953008
 193      0.34572215331882
 194     0.028367241294023
 195     0.010145554056406
 196      0.74268333918528
 197     0.096456754210928
 198     0.041414691974346
 199    0.0013609096634277
 200    0.0031723875192952
 201    -0.0015912529724288
 202    -0.0023676002994645
 203    0.0031863082859149
 204    0.00047545121360299
 205    0.0032496364539252
 206    0.00098777018952551
 207    0.0027709464853735
 208    0.0025256575316164
 209     0.062151133560196
 210     0.061326787942208
 211    -0.083246163813113
 212     -0.51224421975936
 213    -0.019422877242578
 214    -0.0032233723803296
 215    -0.0026247665880346
 216    -0.024317519956751
 217    -0.0040306955489112
 218     -0.00329589471697
 219     0.052211685622357
 220     0.009439627110917
 221    0.0068723543309192
 222      0.16033646990625
 223     0.015393786453172
 224     0.025128544107522
 225     0.030127081640806
 226    -0.005376332238565
 227    -0.0015065590106299
 228    -0.052833048210628
 229    -0.0038789353735925
 230    -0.038939849422703
 231    0.0074975133490644
 232    0.0035796797301928
 233     0.068886804951303
 234    0.0045705236940027
 235    0.0011705481785684
 236    0.0012691099771315
 237    -0.0037109506181828
 238    -0.014765150475235
 239     0.003139629908834
 240    -0.0042703661136262
 241    -0.00066300763797297
 242    0.0040201704428498
 243    -0.0053378139106134
 244    -0.00079761266895723
 245    -0.0070286877968787
 246     0.011865011234985
 247    0.0022875777110713
 248    -0.049762785560343
 249     0.034750647855842
 250    0.0013037853044596
 251    0.00022099361541142
 252    -0.0038670014196361
 253     0.002070682395966
 254    0.0048582366368296
 255     0.018159738579406
 256    0.00086751739108228
 257    0.0039557534093133
 258    -0.0030922333748642
 259    -0.0059502418317309
 260    -0.024202826996515
 261    0.0026578083167067
 262    0.0026831764264607
 263    -0.005261810981935
 264    -0.015547429230662
 265    0.0020608100947643
 266    0.0030070334222481
 267    -0.00082393170730471
 268    0.0026633475822695
 269    0.0037655250499542
 270    -0.0011197072412441
 271    -0.0043003849533097
 272     -0.00826083167411
 273    0.00037139420367303
 274     -0.04025865515257
 275     -0.02220367474587
 276     0.018636031547403
 277    -0.00075462168114331
 278     0.017683228336181
 279    0.0025569743304729
 280    0.00093394301627035
 281    -0.0028385734602178
 282    0.0005303014942344
 283     -0.02356182152456
 284    -0.0030977124730673
 285    -0.0014121016935266
 286    0.0024603341674239
 287    -0.0049774684591792
 288    -0.0050272269958303
 289     0.010027277371023
 290     0.030166547133815
 291     0.006156447418928
 292    -0.004275116992972
 293    -0.00036337231614258
 294    0.0080027224191937
 295    -0.0054196007175525
 296    -0.00049644165886881
 297    -0.012088200686116
 298     0.010306707775431
 299    1.5107504568324e-05
 300    -0.074177776892509
 301     0.042123297085728
 302    0.0065754546842793
 303    -0.0018967427385953
 304    -0.0021953626767831
 305    -0.00017550841491962
 306    -0.0028781791293014
 307      -0.0182965655023
 308    0.0024126364281179
 309    0.0028327060917312
 310    0.00021420280663492
 311    0.0029561320351621
 312     0.025041213160422
 313    -0.0024372599133393
 314    -0.0025207322509526
 315    0.0070806558432059
 316    0.0082773190347857
 317    0.0060010941562125
 318    2.6998630337154e-05
 319    -0.0022401952055423
 320    0.0077338622193146
 321    8.486129625388e-05
 322    -0.0028035708966439
 323    -0.012896287776767
 324    0.00068680958936978
 325    0.0062494757725266
 326    -0.070381183482101
 327    -0.0043969280145164
 328     0.017186988105265
 329    0.0013296439228415
 330     -0.01889497665965
 331    -0.0015054052606626
 332    0.00059824435086502
 333    -0.0020761718719542
 334    -0.00099464312239573
 335     0.025442225473837
 336    0.0017159017414088
 337    -0.001292712663198
 338    0.0028056705675334
 339     0.049464895436625
 340    0.0089191157758496
 341    -0.076884165419435
 342    -0.089855979765798
 343     0.087413651875609
 344    -0.017491503227783
 345    -0.010539190545533
 346     0.089373377954291
 347    -0.017902526188238
 348    -0.010720960337441
 349     -0.23346530428241
 350     0.044277221776964
 351     0.033808362628934
 352     -0.49411547319886
 353      0.11613058036358
 354     0.031250448980456
 355     0.017551114914543
 356    -0.00043191546653346
 357    0.0047460663957784
 358     -0.03371836227481
 359    -0.0077992108800864
 360    -0.0078620779300393
 361    -0.0065751548346786
 362    -0.0033158936983575
 363     0.017537668369272
 364    0.0019290278278495
 365    -0.034511111047197
 366    -0.033895779032123
 367     0.056575301045283
 368      0.21326861939545
 369      0.03429917516755
 370    0.0084638615111986
 371    0.0073869627441332
 372     0.043162523338477
 373     0.010582384250007
 374    0.0093935546663308
 375    -0.087632611246632
 376    -0.022938506870928
 377    -0.017743343738693
 378     -0.27272583139632
 379    -0.059334676956301
 380    -0.058221996559329
 381    -0.009982163014164
 382    0.0070166843139332
 383    0.0028073533902304
 384     0.016926030332041
 385    0.0078272519529177
 386     0.011430574480165
 387    -0.0094022256043965
 388    -0.0040606918187019
 389    -0.019907196411712
 390    -0.0084503851881943
 391     0.010117098471734
 392     0.010298421519029
 393    -0.025127085664546
 394     -0.04425848855733
 395    -0.0080627763849739
 396    -0.0070067137868207
 397    0.0054335825246663
 398    -0.010186146751813
 399    -0.0088571621925814
 400    0.0068128683989828
 401     0.020611137188333
 402     0.017236492770291
 403    -0.015383412890293
 404     0.065956817213653
 405     0.064224351923167
 406    -0.023457537174435
 407    0.0016434525267739
 408    0.0023588594573391
 409    -0.0018305277364202
 410    0.0051799486599243
 411    -0.0098304302451931
 412    -0.001181951123932
 413    -0.0038566774054263
 414    0.0030697494336682
 415    -0.0060752858286158
 416     0.011053202612801
 417     0.010285804321719
 418     0.010935818610563
 419    -0.036322750723871
 420    -0.0094841183277328
 421    -0.0064004801153555
 422     0.004102622791799
 423    -0.0020002510726611
 424    -0.008003745638745
 425    0.0050270563802845
 426    -0.0026490567070146
 427     0.018848443356112
 428    -0.014114745327248
 429    0.0030134997860378
 430     0.042442437167509
 431    -0.0095142633283327
 432     0.028272442725204
 433    -0.0020414478890422
 434    -0.012523124695174
 435    0.00032670419055806
 436    -0.00090711254149891
 437    0.0045032998152188
 438    0.0025710606281282
 439     0.016583552727575
 440    0.00067270830847802
 441    0.0013774163258759
 442    -0.0062874565101189
 443    -0.011708392741794
 444    -0.012039332492149
 445     0.030607456336164
 446     0.036578713017918
 447    -0.0058455250569312
 448    -0.0043494595623334
 449    0.0026573209646639
 450    -0.0076177218729922
 451    -0.0056277277258218
 452    0.0033716829268265
 453     0.011193870931404
 454    0.0082754663356827
 455    -0.0066782119596233
 456     0.069359060281829
 457     0.053415807293067
 458    -0.020503110400259
 459    -0.0015114089584462
 460    -0.005001021775227
 461    -0.0029217465325786
 462    -0.0013347210550252
 463      0.01592230342262
 464    0.0015463759839846
 465    0.0077784873275251
 466    0.0045070917065102
 467    0.00084181294405413
 468     -0.02267062016475
 469    -0.010469642892606
 470    -0.010687928536122
 471     0.029017995950469
 472      0.01147423295621
 473    -0.0064877554489314
 474    0.0027466001027977
 475    -0.0016715491353394
 476    -0.0083800523033041
 477    0.0034555100264317
 478    -0.0022244148239773
 479     0.013344207614446
 480    -0.0075010239206666
 481    0.0017694016748104
 482     0.071792980591685
 483    -0.017275576100912
 484      0.02005086366107
 485    -0.0021183802185982
 486     0.014076496555896
 487    -0.0036791796315875
 488     0.001353799584419
 489    -0.0032711987897245
 490    0.0029920381685445
 491    -0.018300324318659
 492    0.0052262349649658
 493    -0.0020912289127262
 494    0.0042114344822296
 495    0.0034672615204658
 496    -0.0044450730569601
 497    -0.065340290557989
 498    -0.00046094072828751
 499    0.0010519569828207
 500    0.0014837237361718
 501     0.011163329297135
 502    -0.0056419237130279
 503    -0.0032097067575786
 504    6.9002034369841e-05
 505    -0.00034838485120618
 506    -0.00042091619596241
 507    -6.2736408276194e-05
 508    -0.00028612100733104
 509    -0.0063965867542988
 510    -0.007257858277418
 511     -0.10352060031507
 512    0.0052560665952823
 513    0.0028999674053451
 514    0.0018912504095937
 515    -0.024843385553274
 516    -0.012041053191952
 517    -0.0087634487679729
 518    0.00020886941340555
 519    -0.0008254889453601
 520    -5.6392359383722e-05
 521    -0.00040803477577342
 522    -0.00084764703476563
 523    0.0081552279666175
 524     0.070933474529679
 525    -0.0010546653460306
 526    -0.00091491292449292
 527    -0.0003171991852368
 528     0.010112140185163
 529     0.077472884792537
 530    0.0015419330362629
 531    0.0010575801402073
 532    0.0010602092326731
 533    0.0076876634466914
 534     0.063651076517606
 535    -0.0008605092567897
 536    -0.00033101603974695
 537    -0.00081792162944021
 538    0.0023787484046472
 539     0.027812960836488
 540    0.00026775499889846
 541    7.7738551600702e-05
 542    0.00021599147764114
 543    0.0026146548122408
 544      0.02245603244558
 545    0.00015817811487415
 546    0.00027815573480864
 547    0.00022315323795896
 548    -0.003671331807064
 549     0.016823054345798
 550    0.00024163547524059
 551    -0.00010778858064324
 552    -0.00015855931880427
 553    0.0037769103414186
 554    -0.0026759621804662
 555     -0.10298478750833
 556    -0.0029732880630173
 557    0.0071789991854456
 558    -0.0026169213380926
 559    -0.029279811186364
 560     0.020789819422198
 561    -0.012845621981357
 562    0.0001404303446326
 563    0.00028081022334981
 564    0.00027837564156248
 565    0.00040093102537347
 566    0.00021106563814992
 567    -0.0083824186656739
 568    -0.012497308747117
 569     -0.11737364215155
 570    0.0003127723178034
 571    0.0090613995511747
 572    0.0021485348415816
 573    0.0048884031594352
 574    -0.020584197884522
 575    0.00051686739344904
 576    -0.00030429965557276
 577    0.00018043862757315
 578    0.00049207677523936
 579    -0.00019543346024485
 580    0.00045043590105368
 581     0.003739163895329
 582     0.059586851647793
 583    0.0011750864748179
 584    -0.0012032707877299
 585    0.0010658426488137
 586    0.0028034256848693
 587     0.040675173111058
 588    0.00020062230573275
 589    -5.0109885545789e-05
 590    -0.00033974286607286
 591    0.0060627032477992
 592     0.093455102431203
 593    -0.00056546310873178
 594    0.00013069455366893
 595    0.00040127247304642
 596    -0.0042312042788843
 597     0.039905583979764
 598    -0.00016279211272663
 599    0.00010014380328839
 600    -0.00021706832157221
 601     0.003839550553641
 602     0.062046512758394
 603    -0.00035739558077168
 604    0.00070812829633667
 605    -0.0005544661632196
 606    0.00031779577979205
 607     0.044879370389941
 608    -0.00027043242572446
 609    -0.00040723874255623
 610    0.00053047938280828
 611    -0.0041393725411605
 612    0.0045912990076653
 613     0.077144209759454
 614    -0.0024709710579652
 615    -0.0011080809303757
 616    -0.0079687092514439
 617    -0.0071537943901408
 618    -0.014318055326584
 619    -0.027966451776717
 620    7.0252547663455e-05
 621    8.1457895109007e-05
 622    0.0001091309617169
 623    9.7842465460599e-05
 624    -0.00012324892890623
 625    0.0056508775587381
 626    0.0069813357687532
 627     0.091241318598834
 628    0.0013213907800168
 629    -0.0060241394159541
 630    -0.0033317607489335
 631    0.0014838823101235
 632     0.026157517585806
 633    -0.0023079691880952
 634    0.00030508207482629
 635    0.00021702317509612
 636    0.00035776122563177
 637    0.0005564303586332
 638    -0.00016767001643945
 639    0.00097302802085332
 640    -0.029138820171844
 641    -0.00027119222912174
 642    0.0014461987503095
 643    0.00039853231628823
 644    0.0030067922276441
 645    -0.029707842975076
 646    0.00079263343328158
 647    0.00073410330098229
 648    0.00081283082186265
 649     -0.01274352537016
 650     -0.10262590621705
 651    -0.00012000472758696
 652    -4.2854442923941e-05
 653    -0.00066579018298422
 654    -0.00030125424519861
 655    -0.045719534417189
 656    6.8323837754315e-05
 657    -0.0001980928288266
 658    -0.00049275479152265
 659    -0.00079245880346222
 660    -0.017828306105445
 661    -0.00028197574019432
 662    -0.00021848126765101
 663    0.00021698498596991
 664    0.0013743918200903
 665    -0.050235455362949
 666    0.00014668104651583
 667    -0.00026992009118687
 668    -0.00016576015809916
 669    -0.0048133436010802
 670    0.0043468156287463
 671      0.12870210750188
 672    -0.00088320103741581
 673    -0.011179889574108
 674    -8.0164827330904e-05
 675    -0.030400472323629
 676    -0.029930412550104
 677    0.0058108324727468
 678    -0.0004398003895147
 679    0.00036683525799618
 680    -0.00015389451542271
 681    -0.0003738011172083
 682    0.00019267703823747
 683     0.011071471398009
 684     0.017871906905522
 685      0.14330653298469
 686    -0.0023989511179797
 687    -0.0093461838742938
 688    -0.0058667199483048
 689    0.0097399189688578
 690     0.024761275089618
 691       0.0146980179576
 692    0.00014697230819065
 693    0.00025575026712409
 694    -0.00034940914100585
 695    -3.6705384241252e-05
 696    0.00043939142210454
 697    -0.0041101596233603
 698    -0.051064497542869
 699    0.00074524065979482
 700    0.0013884763267966
 701    -0.00047298866447974
 702    -0.0071484189897046
 703     -0.10358984006305
 704    -0.00045956212151738
 705    0.00019551889372861
 706    -0.00030593418567081
 707     -0.00677460989963
 708    -0.077959733500108
 709    0.00036725741471174
 710    7.6702348648512e-05
 711    0.0003917489260075
 712    -0.00017866232207501
 713    -0.056357226248936
 714    -0.00052830961778887
 715    0.00049452012492599
 716    -0.00068149424325567
 717    -0.0064001481237138
 718    -0.061888982443893
 719    -0.00058408949415972
 720    -0.00049162200301117
 721    0.00044699699632165
 722    0.0076063404436685
 723    -0.064409184630899
 724    -0.00015544279864033
 725    -0.00025963544366927
 726    0.00016184092385005
 727    -0.0035339387904746
 728    0.0022026386376505
 729      0.10270584878104
 730    -0.0028304188343353
 731    -0.0014908855169334
 732    -0.0094894814315588
 733    -0.033472190567323
 734    -0.0015055564680643
 735    -0.022540647416103
 736    0.00066837692788567
 737    0.00022363510099085
 738    -0.0003257331326647
 739    -6.9453190921198e-06
 740    0.00039007906328498
 741     0.011542034069869
 742     0.017561729632153
 743      0.15640682424764
 744    0.0016136415500191
 745    -0.00085125722088348
 746     -0.01292918281139
 747    0.0043387795013598
 748    -0.0010910171713735
 749     0.028281348304044
 750    -0.0004254702394699
 751    0.0005156175980349
 752    -0.00033766098391735
 753    -0.00019961150550933
 754    0.00023142993568508
 755    -0.0051279086521716
 756    -0.080985101020716
 757    0.0012662964964591
 758    -0.0010517748168049
 759     0.001319587991422
 760    -0.0048198056133867
 761     -0.04835586642805
 762    0.00024395425535136
 763    0.00041815425192503
 764    0.00023466753449399
 765    -0.0085267902066833
 766     -0.12526706532043
 767    -0.00041581788191558
 768    -0.00029262694337947
 769    -0.00056365374002155
 770     0.006926773394094
 771    -0.038682530626805
 772    -0.00026376056203904
 773    0.00025384836604058
 774    -7.876701110253e-05
 775    -0.0055335854680464
 776    -0.045914008204666
 777    -0.00047034581712676
 778    0.00041149532783895
 779    -0.00068013722633303
 780    -0.00044555024937288
 781    -0.062184145707327
 782    -0.00060067534740013
 783    -0.00072250127106683
 784    0.00038424732646367
 785    0.00098562215852278
 786    0.0015039436377743
 787    -0.033545747552919
 788     0.025477029886949
 789    -0.0012880125231051
 790    -0.0035557109938557
 791      0.04040868273849
 792    -0.0067189465927133
 793    -0.029508191274239
 794    -6.0767431711892e-05
 795    -0.0012983813284086
 796    -0.00032151526224921
 797    -0.00054018921799664
 798    -0.00046361711119955
 799    -0.030322308302646
 800    -0.048945157066271
 801     -0.37066353513147
 802    0.0035262191611124
 803     0.026294639751035
 804     0.041923245777413
 805    -0.012978176251918
 806    -0.072466743695884
 807      -0.1085334049955
 808    -0.00020677872817087
 809    0.00049797360280925
 810    0.00043125660281299
 811    -0.00012952668662495
 812    -0.00036870969173741
 813      0.01272663646018
 814    -0.00039269872277378
 815    0.0012739578579062
 816    -0.0013630472564321
 817    -0.00017110213181389
 818      0.01803227900964
 819      0.21432483908678
 820    -0.0007879967606011
 821    -0.00023918854313548
 822    0.0015976523087806
 823     0.024824367614045
 824      0.37491787667025
 825    0.00058513817532266
 826    0.00092278129516335
 827    -0.0018032970973992
 828    -0.002239425191301
 829    -0.092647233133098
 830     0.001271763522188
 831    0.00072647169817406
 832    -0.00044189572042649
 833    -0.0045151907391564
 834     0.084562314221145
 835    0.0011965507988131
 836    0.00065655902096774
 837    0.0010894848521321
 838    -0.0010970175131676
 839    -0.0080170240207653
 840    0.00065506273288139
 841    -0.00054876593458043
 842    0.00088882522371939
 843    0.0039783827681593
 844    -0.006076532916783
 845    -0.072748098444356
 846    -0.00085558442094672
 847     0.001523399950754
 848    -0.0041342644351194
 849    -0.015408494688573
 850    0.0069621320323265
 851    -0.014299232970311
 852    0.00018162189241643
 853    -0.00026101962419717
 854    0.00026497199878366
 855    3.5448879899817e-05
 856    0.00029341791370937
 857    -0.0060757714769872
 858    -0.0096565850662773
 859    -0.078053257534064
 860    -0.0082508125110975
 861    0.0063521103955391
 862    0.0024434008969467
 863     0.023250437894385
 864     -0.01351873045824
 865    -0.0070620513160867
 866    -0.00033265868272809
 867    -0.00061489896208869
 868    0.00062643120137819
 869    -3.8854765935851e-05
 870    0.00025757601294186
 871    0.0054446179254732
 872     0.037506534197176
 873    0.00019864494077001
 874    -0.00097624912789396
 875    0.0002450591308622
 876     0.010353318306044
 877     0.081245585042959
 878    5.6535251444211e-05
 879    4.330671459689e-05
 880    0.00089105719148008
 881    0.0024791013540002
 882     0.018263908227813
 883    -0.00027025354578302
 884    0.00050308724148215
 885    -0.00069545109236929
 886    -0.00049659273012235
 887     0.028383754366912
 888    -0.0001936887668035
 889    -3.2099108425846e-05
 890    0.00023414154833819
 891    0.0012982589094073
 892     0.039550132612076
 893    -7.3336861361683e-05
 894    0.00010423231221342
 895    -0.00017167492991914
 896    6.5242779062845e-05
 897     0.033502622734685
 898    -6.5899878491917e-05
 899    0.00028243613516114
 900    -0.00032035716540636
 901     0.005814520493917
 902    -0.0057935871574133
 903     -0.14813888404576
 904    -0.0020164686178183
 905    -0.0037643377273306
 906     0.008670005629073
 907    -0.035073200565287
 908    -0.016935308134276
 909     0.031497250097896
 910    -0.00029601169421628
 911    0.00024045320679073
 912    0.00018724366199235
 913    -6.9948719048096e-05
 914    0.0003434657091101
 915    -0.0087747828036072
 916    -0.014739755612072
 917     -0.11213644735995
 918    -0.0035752078730419
 919    0.0056223419865552
 920     0.006030002573809
 921     0.014555540741993
 922    -0.010732057048004
 923    -0.014240545517151
 924    6.8688650605928e-05
 925    0.00067490574914979
 926    0.00052249178921949
 927    0.00012737395983399
 928    0.00015879289157615
 929    0.0052838577747339
 930     0.069131534485047
 931    0.00024836407007303
 932    -0.00038051096314672
 933    -9.4207235593796e-05
 934    0.0037898914931567
 935     0.045718046512392
 936    0.00089504019696927
 937    0.00076597088857661
 938    -0.001619274029936
 939    0.0052241626352591
 940     0.067470150838815
 941    8.4396864261788e-06
 942    0.00042757644797159
 943    -8.2930691864695e-05
 944    -0.0044750637234721
 945     0.069017188413402
 946    9.6741624986495e-05
 947    -0.00017184340424243
 948    0.00019743808213565
 949    -0.00046622874736346
 950     0.058383499762424
 951    -0.00045911545318224
 952    0.00073311592901633
 953    -0.00056554223030057
 954    0.0048050358754006
 955     0.086466577327557
 956    -0.00050950963386999
 957    -0.00068969531338697
 958    0.00051109510757737
 959    -0.0035937992116988
 960    0.0022383464837185
 961      0.10155477002129
 962     0.028544732113051
 963    0.0017367082379322
 964    0.0037436041812288
 965     0.064175341064646
 966     0.019689112146092
 967    -0.0014697506944258
 968    -0.00088867675220401
 969    -0.00057425275871747
 970    0.00012382437831275
 971    0.00095572047846551
 972    -0.0018814563546987
 973     0.034689108956799
 974     0.057222873994638
 975      0.41533504405143
 976    0.0086615451228413
 977    -0.045284372411536
 978    -0.021569476348991
 979    -0.028190484059725
 980      0.11787396076332
 981     0.063820832498758
 982    -0.00055375921975208
 983    -0.00043015935393953
 984    -0.00043845404154556
 985    -0.0001140445511016
 986    0.00032012958412602
 987    -0.016838537817534
 988    -0.006533264088174
 989    0.0011816614791514
 990    0.00082352486761145
 991    0.0022191479851776
 992    -0.021124715563413
 993     -0.22123493630243
 994    -0.00098931940581819
 995    -0.0017407823441372
 996    1.1594845865171e-05
 997    -0.026954158336211
 998     -0.41022241306792
 999    0.00037382430649798
 1000    0.0019452544957372
 1001    -0.001042568638814
 1002    0.0012457853488882
 1003     0.051465085838397
 1004    0.0013543669985792
 1005    0.00083505632249462
 1006    -0.00020203472663463
 1007    0.0023567937734707
 1008     -0.10313848153467
 1009    0.0015176893703675
 1010    -0.0012989964171384
 1011    -0.00065606338947165
 1012    -0.00012382337677288
 1013    -0.056237194381775
 1014    0.0014871292644867
 1015    -0.0007967241209288
 1016    0.00043805727998168
 1017    -0.0038273540525158
 1018    0.0048969309095861
 1019     0.077908876006441
 1020    -0.0017211340296137
 1021    0.0062893951058366
 1022    -0.0018939578826849
 1023     -0.01640917451657
 1024     0.020175471762259
 1025    -0.0065846666970511
 1026    0.00011706627261636
 1027    0.00030631383299032
 1028    -0.00028701589195336
 1029    0.00021032470327181
 1030    -0.00030326140769601
 1031    0.0073562569877595
 1032     0.011979891413894
 1033     0.090788943899427
 1034    -0.0095416127965734
 1035    -0.0033208356603994
 1036    -0.0081477299617185
 1037     0.024816606365064
 1038     0.010348027340881
 1039     0.017319429214184
 1040    -0.0002183716969654
 1041    8.4072893191235e-05
 1042    -0.00050238131218173
 1043    -0.00023997644871142
 1044    -0.00054525783333688
 1045    -0.0046642530344859
 1046    -0.033458340694573
 1047    0.0002089341036797
 1048    -7.2800313761318e-05
 1049    0.00075082625968988
 1050    -0.011410348876541
 1051    -0.095824180435343
 1052    -5.5157251736422e-05
 1053    -0.00074468024825822
 1054    -0.00029025534152852
 1055    -0.0020677976865071
 1056    -0.021374854352082
 1057    -0.00030091188482805
 1058    0.00075286225983758
 1059    -0.00043692362614315
 1060    0.00034906249834967
 1061    -0.034198415799094
 1062    -0.00020907903576781
 1063    -0.00017648008016299
 1064    -5.3225793634482e-05
 1065    -0.001363843589639
 1066    -0.044936811434639
 1067    -0.00016311391818393
 1068    0.00020310165066676
 1069    -0.00012701980306988
 1070    0.00010850401335832
 1071    -0.031289992542456
 1072    -8.7131346170998e-05
 1073    0.00043115976560006
 1074    -0.00026325091558541
