[Molden Format]
made by pyscf v[2.13.1]
[Atoms] (AU)
Pb   1   22    -0.37070568412980    -0.21285497121876    -0.32154445899924
I   2   25     5.58850218598525     0.08503767560543    -0.04636632019233
I   3   25     0.24034103770056     5.44591479098232     0.29022602793683
I   4   25    -0.06877469257742     0.19772582386549     5.39917241529121
I   5   25    -5.73934768415254     0.06340976010978    -0.05216966912087
I   6   25     0.46479136841965    -5.68875782607180     0.18865513846758
I   7   25     0.53798046122405     0.54133661482128    -5.80871764045919
Pb   8   22    -0.45262531162970    -0.38588774381456    11.21800009051682
I   9   25     5.26379621517961     0.04590711674406    10.60423027334096
I   10   25    -0.12734297435607     5.33048465011551    10.84555018917404
I   11   25    -0.09908212016320     0.01536536311884    16.64040668850955
I   12   25    -5.95671721108288    -0.04025116645324    10.74342372022418
I   13   25     0.26176675250088    -5.84882329800084    10.30736185807629
Pb   14   22    11.07265180564590    -0.17550075491448    -0.24424710160003
I   15   25    16.98497557061050    -0.80283502621247    -0.06589097051133
I   16   25    11.19987572725612     5.32541451492331    -0.19253285647519
I   17   25    10.80949799416959    -0.23010817073604     5.24104958181822
I   18   25    10.79833160249954    -6.04427389161235    -0.21793833449384
I   19   25    11.05424776291876    -0.50906576179208    -6.09651348059983
Pb   20   22    10.89462070745063    -0.29885073796934    10.94713241700004
I   21   25    16.50514009251319     0.46562851709283    10.36144015058297
I   22   25    10.42908667666402     5.33703822031551    10.48143398004060
I   23   25    10.32545409599287     0.28947958611762    16.48103474606824
I   24   25    10.80399889114711    -5.80872141991144    10.86537719567298
C   25   6    -5.77731606144730    -6.12134259215049     3.76866191295886
N   26   7    -4.61256446731038    -4.51164742308023     5.78621100231562
H   27   1    -5.93693933746318    -3.82387593086640     7.07628545358145
H   28   1    -3.21460366186700    -5.49664070934402     6.82047511782520
H   29   1    -3.70248937325496    -2.91855349801427     4.97017623912307
H   30   1    -6.72168968466357    -7.79776777013140     4.55189103062896
H   31   1    -4.29619785789244    -6.75983947566628     2.39512959712774
H   32   1    -7.15490183981561    -5.02505199605431     2.62681001999941
C   33   6    -7.03916367359050     4.59529803971022     5.34328754460944
N   34   7    -4.41703828465388     5.66493971799779     5.44473938133284
H   35   1    -3.06207819717498     4.20574422721401     5.55572488635467
H   36   1    -4.02569868096995     6.74094788359901     3.81564428386779
H   37   1    -4.19135585250157     6.84311214707137     7.03285954723895
H   38   1    -7.26450406531426     3.34439950073275     3.66090594988391
H   39   1    -8.47101860680407     6.10566164476885     5.23112285048588
H   40   1    -7.43324715960729     3.42568229052867     7.04893166792837
C   41   6    -6.12480457041069     6.93473740794703    16.78195851359623
N   42   7    -4.79328086632866     4.86932722503340    15.37543157963020
H   43   1    -6.04136371338052     3.67619194450551    14.41141425334908
H   44   1    -3.55680660685999     5.65746774090126    13.99240527974927
H   45   1    -3.67290760050102     3.74070341494592    16.56030875699374
H   46   1    -7.20023259009167     8.16720733775774    15.45477173097006
H   47   1    -4.72969158223704     8.21689201702481    17.71362183889867
H   48   1    -7.42577707223689     6.19611149599503    18.22317515003089
C   49   6     4.70383823912687    -6.78069071372474    -5.68660164856368
N   50   7     5.24615184235455    -4.17622670514830    -4.71496872600056
H   51   1     3.80707626561902    -2.87093428940135    -5.26642671394501
H   52   1     5.27625895897112    -4.16543825870316    -2.71353522103408
H   53   1     6.99933580578916    -3.48003459332341    -5.33543573256187
H   54   1     2.86634603437091    -7.46879857718874    -4.91550835206553
H   55   1     6.17293778452949    -8.13420516071834    -5.07671332884767
H   56   1     4.57400838519087    -6.81519144358092    -7.76512464105566
C   57   6     6.32864554801528    -6.74473489475264     5.40592251700815
N   58   7     4.93396530712415    -4.28351779559661     5.28766345613287
H   59   1     3.72246566811774    -4.22678065843267     3.70196402939233
H   60   1     3.82523653367609    -4.01639744898484     6.92008258185103
H   61   1     6.19887049613690    -2.75801181510184     5.15239497041038
H   62   1     5.01684491549533    -8.35218317946079     5.57521741132956
H   63   1     7.63684814199406    -6.78561911945760     7.06512095163752
H   64   1     7.50469014547260    -7.02661022294501     3.68432721547177
C   65   6     3.79123469151679    -6.08257864015729    16.65556607148082
N   66   7     5.76016490714074    -4.65226950291361    15.20742358879962
H   67   1     4.90236152741693    -3.55770044731691    13.75825687455891
H   68   1     6.76950353506731    -3.38648748097907    16.35501835945161
H   69   1     7.07790683859633    -5.84302372852455    14.32285412824746
H   70   1     2.39589871566044    -4.75255537861815    17.52163133382123
H   71   1     4.61900465394289    -7.25470394563226    18.15802117270814
H   72   1     2.66232364305837    -7.30901089500001    15.37299383292951
C   73   6     6.41415376542572     5.08968062951444    -6.64676771300293
N   74   7     5.30109751915240     5.70617732148804    -4.11596333903592
H   75   1     4.30238293149814     4.15125397441218    -3.37935187513271
H   76   1     6.72109820038658     6.18964863264902    -2.81458076664070
H   77   1     4.03356750055264     7.24212970799941    -4.24997326715945
H   78   1     7.75121247732661     3.46812364956028    -6.50752702296661
H   79   1     7.48605744588439     6.72766688839556    -7.40631667260612
H   80   1     4.92639695399527     4.57296714609624    -8.01583649572783
C   81   6     6.49186308312009     5.47112562721014     4.32269370788497
N   82   7     4.43355449098258     5.39878880088792     6.25289587631209
H   83   1     3.00545822303077     6.69772417795183     5.79769864742686
H   84   1     3.62410920278638     3.59466726976565     6.35006181418497
H   85   1     5.14184462945693     5.86913974356604     8.03867383594320
H   86   1     5.77072280699869     4.93827766214041     2.42907096805105
H   87   1     8.04693760828592     4.15821950490732     4.82809718044764
H   88   1     7.31884691947837     7.39819840917499     4.17498326535834
C   89   6     4.82636430159142     5.05234908992365    17.90575029398320
N   90   7     5.34915703395234     5.41279167147095    15.14303495055731
H   91   1     6.08259753741853     3.75372173821805    14.33466113707374
H   92   1     3.68183088726122     5.87914395366948    14.15925864791774
H   93   1     6.66988095323249     6.87896214138049    14.85368764526841
H   94   1     3.43977019878731     3.49125011787271    18.19808903572729
H   95   1     4.01094936856772     6.79034532449514    18.74328447129493
H   96   1     6.57251281466427     4.56683120536978    18.94452896520436
C   97   6    16.91490074645938    -6.83828956600148    -6.20322253540177
N   98   7    15.36783677033557    -5.09315205640526    -4.60662694782699
H   99   1    14.23735724919376    -3.82510992202574    -5.70603937148095
H   100   1    14.07389782914501    -6.07824738787978    -3.38826004408391
H   101   1    16.50013987718759    -3.93329296320484    -3.39090566065830
H   102   1    15.70449336915297    -8.00986118172196    -7.43904672908358
H   103   1    18.05446418108197    -8.13420516071834    -5.02551686868096
H   104   1    18.23238378543590    -5.77968010882913    -7.43095681154432
C   105   6    16.55950373366468    -6.86785244149417     6.44837103636322
N   106   7    15.53730551946044    -4.36063940846623     5.61433285238193
H   107   1    13.55223515300658    -4.42762453040369     5.42824396199151
H   108   1    15.93538199677845    -2.93477868651978     6.98227157888434
H   109   1    16.27470310943147    -3.76512812510592     3.86365655551462
H   110   1    15.68459077360904    -7.42601517772858     8.28778509258786
H   111   1    18.62279175414042    -6.79776249953406     6.73498390794988
H   112   1    16.12227024131956    -8.36842348577530     5.06821712019163
C   113   6    17.37015844658059     5.12541157107771     4.19691353703392
N   114   7    15.02269908067113     5.56817062261106     5.71702434944305
H   115   1    13.47696547173902     5.96862059594152     4.53123443436134
H   116   1    14.56581621608279     3.97026167537971     6.80565399583024
H   117   1    15.25131247804264     7.11326172466082     6.96204584017312
H   118   1    17.13545824136186     3.47846612064002     2.90411599042259
H   119   1    19.00911980414200     4.74853971060345     5.42448529672975
H   120   1    17.80294541335461     6.79998481745654     2.99334696829843
[GTO]
1 0
 s    6 1.00
          55.727520333  0.0030229398792401
          20.302912827   -0.14617744364668
           14.55862875    0.38247858446898
          6.5370530973   -0.68495343489743
          1.5933900686    0.97658689205599
         0.83051419711    0.33195675186838
 s    2 1.00
          8.0719473648  -0.064432974600192
           1.416573749     1.0374469808883
 s    1 1.00
          0.2041893337                   1
 s    1 1.00
        0.077159007761                   1
 p    4 1.00
          9.5531412199    0.55073462105566
          7.5327685129   -0.97604901828593
          1.1185539567    0.86371664043596
         0.53739855255    0.25918281328032
 p    1 1.00
          2.1359869828                   1
 p    1 1.00
         0.20027494801                   1
 p    1 1.00
        0.063408011513                   1
 d    5 1.00
          13.494505735   0.011860978800904
          7.0609770411  -0.068419120498775
          2.1581835375    0.34830169166445
          1.0148541418    0.49738884511814
          0.4463267292    0.30426691151759
 d    1 1.00
                 0.175                   1

2 0
 s    6 1.00
          445.90489176  0.0022025754561624
          23.336842412   -0.16476917790558
          19.583446104    0.40052364264037
          8.5112089186   -0.83034405336891
          2.1996161861    0.91034903894187
          1.0668970454    0.46345033669896
 s    2 1.00
          11.720547572  -0.046972984527237
          1.7625986449     1.0252380966471
 s    1 1.00
         0.28697476318                   1
 s    1 1.00
         0.11227609607                   1
 p    4 1.00
          20.499027254   0.084562108576311
          10.558754576   -0.42051679185026
          1.5015895485     0.9157047730546
         0.64597173095    0.18397852281308
 p    1 1.00
          3.0288656771                   1
 p    1 1.00
         0.34506591841                   1
 p    1 1.00
         0.11134513813                   1
 d    5 1.00
           51.23535492  0.0041015169444301
          15.616239482  -0.0051611249493146
          4.5266002139    0.29635196981753
          2.0529808766    0.51995196518892
         0.87640281623    0.31750716843876
 d    1 1.00
                 0.309                   1

3 0
 s    6 1.00
          445.90489176  0.0022025754561624
          23.336842412   -0.16476917790558
          19.583446104    0.40052364264037
          8.5112089186   -0.83034405336891
          2.1996161861    0.91034903894187
          1.0668970454    0.46345033669896
 s    2 1.00
          11.720547572  -0.046972984527237
          1.7625986449     1.0252380966471
 s    1 1.00
         0.28697476318                   1
 s    1 1.00
         0.11227609607                   1
 p    4 1.00
          20.499027254   0.084562108576311
          10.558754576   -0.42051679185026
          1.5015895485     0.9157047730546
         0.64597173095    0.18397852281308
 p    1 1.00
          3.0288656771                   1
 p    1 1.00
         0.34506591841                   1
 p    1 1.00
         0.11134513813                   1
 d    5 1.00
           51.23535492  0.0041015169444301
          15.616239482  -0.0051611249493146
          4.5266002139    0.29635196981753
          2.0529808766    0.51995196518892
         0.87640281623    0.31750716843876
 d    1 1.00
                 0.309                   1

4 0
 s    6 1.00
          445.90489176  0.0022025754561624
          23.336842412   -0.16476917790558
          19.583446104    0.40052364264037
          8.5112089186   -0.83034405336891
          2.1996161861    0.91034903894187
          1.0668970454    0.46345033669896
 s    2 1.00
          11.720547572  -0.046972984527237
          1.7625986449     1.0252380966471
 s    1 1.00
         0.28697476318                   1
 s    1 1.00
         0.11227609607                   1
 p    4 1.00
          20.499027254   0.084562108576311
          10.558754576   -0.42051679185026
          1.5015895485     0.9157047730546
         0.64597173095    0.18397852281308
 p    1 1.00
          3.0288656771                   1
 p    1 1.00
         0.34506591841                   1
 p    1 1.00
         0.11134513813                   1
 d    5 1.00
           51.23535492  0.0041015169444301
          15.616239482  -0.0051611249493146
          4.5266002139    0.29635196981753
          2.0529808766    0.51995196518892
         0.87640281623    0.31750716843876
 d    1 1.00
                 0.309                   1

5 0
 s    6 1.00
          445.90489176  0.0022025754561624
          23.336842412   -0.16476917790558
          19.583446104    0.40052364264037
          8.5112089186   -0.83034405336891
          2.1996161861    0.91034903894187
          1.0668970454    0.46345033669896
 s    2 1.00
          11.720547572  -0.046972984527237
          1.7625986449     1.0252380966471
 s    1 1.00
         0.28697476318                   1
 s    1 1.00
         0.11227609607                   1
 p    4 1.00
          20.499027254   0.084562108576311
          10.558754576   -0.42051679185026
          1.5015895485     0.9157047730546
         0.64597173095    0.18397852281308
 p    1 1.00
          3.0288656771                   1
 p    1 1.00
         0.34506591841                   1
 p    1 1.00
         0.11134513813                   1
 d    5 1.00
           51.23535492  0.0041015169444301
          15.616239482  -0.0051611249493146
          4.5266002139    0.29635196981753
          2.0529808766    0.51995196518892
         0.87640281623    0.31750716843876
 d    1 1.00
                 0.309                   1

6 0
 s    6 1.00
          445.90489176  0.0022025754561624
          23.336842412   -0.16476917790558
          19.583446104    0.40052364264037
          8.5112089186   -0.83034405336891
          2.1996161861    0.91034903894187
          1.0668970454    0.46345033669896
 s    2 1.00
          11.720547572  -0.046972984527237
          1.7625986449     1.0252380966471
 s    1 1.00
         0.28697476318                   1
 s    1 1.00
         0.11227609607                   1
 p    4 1.00
          20.499027254   0.084562108576311
          10.558754576   -0.42051679185026
          1.5015895485     0.9157047730546
         0.64597173095    0.18397852281308
 p    1 1.00
          3.0288656771                   1
 p    1 1.00
         0.34506591841                   1
 p    1 1.00
         0.11134513813                   1
 d    5 1.00
           51.23535492  0.0041015169444301
          15.616239482  -0.0051611249493146
          4.5266002139    0.29635196981753
          2.0529808766    0.51995196518892
         0.87640281623    0.31750716843876
 d    1 1.00
                 0.309                   1

7 0
 s    6 1.00
          445.90489176  0.0022025754561624
          23.336842412   -0.16476917790558
          19.583446104    0.40052364264037
          8.5112089186   -0.83034405336891
          2.1996161861    0.91034903894187
          1.0668970454    0.46345033669896
 s    2 1.00
          11.720547572  -0.046972984527237
          1.7625986449     1.0252380966471
 s    1 1.00
         0.28697476318                   1
 s    1 1.00
         0.11227609607                   1
 p    4 1.00
          20.499027254   0.084562108576311
          10.558754576   -0.42051679185026
          1.5015895485     0.9157047730546
         0.64597173095    0.18397852281308
 p    1 1.00
          3.0288656771                   1
 p    1 1.00
         0.34506591841                   1
 p    1 1.00
         0.11134513813                   1
 d    5 1.00
           51.23535492  0.0041015169444301
          15.616239482  -0.0051611249493146
          4.5266002139    0.29635196981753
          2.0529808766    0.51995196518892
         0.87640281623    0.31750716843876
 d    1 1.00
                 0.309                   1

8 0
 s    6 1.00
          55.727520333  0.0030229398792401
          20.302912827   -0.14617744364668
           14.55862875    0.38247858446898
          6.5370530973   -0.68495343489743
          1.5933900686    0.97658689205599
         0.83051419711    0.33195675186838
 s    2 1.00
          8.0719473648  -0.064432974600192
           1.416573749     1.0374469808883
 s    1 1.00
          0.2041893337                   1
 s    1 1.00
        0.077159007761                   1
 p    4 1.00
          9.5531412199    0.55073462105566
          7.5327685129   -0.97604901828593
          1.1185539567    0.86371664043596
         0.53739855255    0.25918281328032
 p    1 1.00
          2.1359869828                   1
 p    1 1.00
         0.20027494801                   1
 p    1 1.00
        0.063408011513                   1
 d    5 1.00
          13.494505735   0.011860978800904
          7.0609770411  -0.068419120498775
          2.1581835375    0.34830169166445
          1.0148541418    0.49738884511814
          0.4463267292    0.30426691151759
 d    1 1.00
                 0.175                   1

9 0
 s    6 1.00
          445.90489176  0.0022025754561624
          23.336842412   -0.16476917790558
          19.583446104    0.40052364264037
          8.5112089186   -0.83034405336891
          2.1996161861    0.91034903894187
          1.0668970454    0.46345033669896
 s    2 1.00
          11.720547572  -0.046972984527237
          1.7625986449     1.0252380966471
 s    1 1.00
         0.28697476318                   1
 s    1 1.00
         0.11227609607                   1
 p    4 1.00
          20.499027254   0.084562108576311
          10.558754576   -0.42051679185026
          1.5015895485     0.9157047730546
         0.64597173095    0.18397852281308
 p    1 1.00
          3.0288656771                   1
 p    1 1.00
         0.34506591841                   1
 p    1 1.00
         0.11134513813                   1
 d    5 1.00
           51.23535492  0.0041015169444301
          15.616239482  -0.0051611249493146
          4.5266002139    0.29635196981753
          2.0529808766    0.51995196518892
         0.87640281623    0.31750716843876
 d    1 1.00
                 0.309                   1

10 0
 s    6 1.00
          445.90489176  0.0022025754561624
          23.336842412   -0.16476917790558
          19.583446104    0.40052364264037
          8.5112089186   -0.83034405336891
          2.1996161861    0.91034903894187
          1.0668970454    0.46345033669896
 s    2 1.00
          11.720547572  -0.046972984527237
          1.7625986449     1.0252380966471
 s    1 1.00
         0.28697476318                   1
 s    1 1.00
         0.11227609607                   1
 p    4 1.00
          20.499027254   0.084562108576311
          10.558754576   -0.42051679185026
          1.5015895485     0.9157047730546
         0.64597173095    0.18397852281308
 p    1 1.00
          3.0288656771                   1
 p    1 1.00
         0.34506591841                   1
 p    1 1.00
         0.11134513813                   1
 d    5 1.00
           51.23535492  0.0041015169444301
          15.616239482  -0.0051611249493146
          4.5266002139    0.29635196981753
          2.0529808766    0.51995196518892
         0.87640281623    0.31750716843876
 d    1 1.00
                 0.309                   1

11 0
 s    6 1.00
          445.90489176  0.0022025754561624
          23.336842412   -0.16476917790558
          19.583446104    0.40052364264037
          8.5112089186   -0.83034405336891
          2.1996161861    0.91034903894187
          1.0668970454    0.46345033669896
 s    2 1.00
          11.720547572  -0.046972984527237
          1.7625986449     1.0252380966471
 s    1 1.00
         0.28697476318                   1
 s    1 1.00
         0.11227609607                   1
 p    4 1.00
          20.499027254   0.084562108576311
          10.558754576   -0.42051679185026
          1.5015895485     0.9157047730546
         0.64597173095    0.18397852281308
 p    1 1.00
          3.0288656771                   1
 p    1 1.00
         0.34506591841                   1
 p    1 1.00
         0.11134513813                   1
 d    5 1.00
           51.23535492  0.0041015169444301
          15.616239482  -0.0051611249493146
          4.5266002139    0.29635196981753
          2.0529808766    0.51995196518892
         0.87640281623    0.31750716843876
 d    1 1.00
                 0.309                   1

12 0
 s    6 1.00
          445.90489176  0.0022025754561624
          23.336842412   -0.16476917790558
          19.583446104    0.40052364264037
          8.5112089186   -0.83034405336891
          2.1996161861    0.91034903894187
          1.0668970454    0.46345033669896
 s    2 1.00
          11.720547572  -0.046972984527237
          1.7625986449     1.0252380966471
 s    1 1.00
         0.28697476318                   1
 s    1 1.00
         0.11227609607                   1
 p    4 1.00
          20.499027254   0.084562108576311
          10.558754576   -0.42051679185026
          1.5015895485     0.9157047730546
         0.64597173095    0.18397852281308
 p    1 1.00
          3.0288656771                   1
 p    1 1.00
         0.34506591841                   1
 p    1 1.00
         0.11134513813                   1
 d    5 1.00
           51.23535492  0.0041015169444301
          15.616239482  -0.0051611249493146
          4.5266002139    0.29635196981753
          2.0529808766    0.51995196518892
         0.87640281623    0.31750716843876
 d    1 1.00
                 0.309                   1

13 0
 s    6 1.00
          445.90489176  0.0022025754561624
          23.336842412   -0.16476917790558
          19.583446104    0.40052364264037
          8.5112089186   -0.83034405336891
          2.1996161861    0.91034903894187
          1.0668970454    0.46345033669896
 s    2 1.00
          11.720547572  -0.046972984527237
          1.7625986449     1.0252380966471
 s    1 1.00
         0.28697476318                   1
 s    1 1.00
         0.11227609607                   1
 p    4 1.00
          20.499027254   0.084562108576311
          10.558754576   -0.42051679185026
          1.5015895485     0.9157047730546
         0.64597173095    0.18397852281308
 p    1 1.00
          3.0288656771                   1
 p    1 1.00
         0.34506591841                   1
 p    1 1.00
         0.11134513813                   1
 d    5 1.00
           51.23535492  0.0041015169444301
          15.616239482  -0.0051611249493146
          4.5266002139    0.29635196981753
          2.0529808766    0.51995196518892
         0.87640281623    0.31750716843876
 d    1 1.00
                 0.309                   1

14 0
 s    6 1.00
          55.727520333  0.0030229398792401
          20.302912827   -0.14617744364668
           14.55862875    0.38247858446898
          6.5370530973   -0.68495343489743
          1.5933900686    0.97658689205599
         0.83051419711    0.33195675186838
 s    2 1.00
          8.0719473648  -0.064432974600192
           1.416573749     1.0374469808883
 s    1 1.00
          0.2041893337                   1
 s    1 1.00
        0.077159007761                   1
 p    4 1.00
          9.5531412199    0.55073462105566
          7.5327685129   -0.97604901828593
          1.1185539567    0.86371664043596
         0.53739855255    0.25918281328032
 p    1 1.00
          2.1359869828                   1
 p    1 1.00
         0.20027494801                   1
 p    1 1.00
        0.063408011513                   1
 d    5 1.00
          13.494505735   0.011860978800904
          7.0609770411  -0.068419120498775
          2.1581835375    0.34830169166445
          1.0148541418    0.49738884511814
          0.4463267292    0.30426691151759
 d    1 1.00
                 0.175                   1

15 0
 s    6 1.00
          445.90489176  0.0022025754561624
          23.336842412   -0.16476917790558
          19.583446104    0.40052364264037
          8.5112089186   -0.83034405336891
          2.1996161861    0.91034903894187
          1.0668970454    0.46345033669896
 s    2 1.00
          11.720547572  -0.046972984527237
          1.7625986449     1.0252380966471
 s    1 1.00
         0.28697476318                   1
 s    1 1.00
         0.11227609607                   1
 p    4 1.00
          20.499027254   0.084562108576311
          10.558754576   -0.42051679185026
          1.5015895485     0.9157047730546
         0.64597173095    0.18397852281308
 p    1 1.00
          3.0288656771                   1
 p    1 1.00
         0.34506591841                   1
 p    1 1.00
         0.11134513813                   1
 d    5 1.00
           51.23535492  0.0041015169444301
          15.616239482  -0.0051611249493146
          4.5266002139    0.29635196981753
          2.0529808766    0.51995196518892
         0.87640281623    0.31750716843876
 d    1 1.00
                 0.309                   1

16 0
 s    6 1.00
          445.90489176  0.0022025754561624
          23.336842412   -0.16476917790558
          19.583446104    0.40052364264037
          8.5112089186   -0.83034405336891
          2.1996161861    0.91034903894187
          1.0668970454    0.46345033669896
 s    2 1.00
          11.720547572  -0.046972984527237
          1.7625986449     1.0252380966471
 s    1 1.00
         0.28697476318                   1
 s    1 1.00
         0.11227609607                   1
 p    4 1.00
          20.499027254   0.084562108576311
          10.558754576   -0.42051679185026
          1.5015895485     0.9157047730546
         0.64597173095    0.18397852281308
 p    1 1.00
          3.0288656771                   1
 p    1 1.00
         0.34506591841                   1
 p    1 1.00
         0.11134513813                   1
 d    5 1.00
           51.23535492  0.0041015169444301
          15.616239482  -0.0051611249493146
          4.5266002139    0.29635196981753
          2.0529808766    0.51995196518892
         0.87640281623    0.31750716843876
 d    1 1.00
                 0.309                   1

17 0
 s    6 1.00
          445.90489176  0.0022025754561624
          23.336842412   -0.16476917790558
          19.583446104    0.40052364264037
          8.5112089186   -0.83034405336891
          2.1996161861    0.91034903894187
          1.0668970454    0.46345033669896
 s    2 1.00
          11.720547572  -0.046972984527237
          1.7625986449     1.0252380966471
 s    1 1.00
         0.28697476318                   1
 s    1 1.00
         0.11227609607                   1
 p    4 1.00
          20.499027254   0.084562108576311
          10.558754576   -0.42051679185026
          1.5015895485     0.9157047730546
         0.64597173095    0.18397852281308
 p    1 1.00
          3.0288656771                   1
 p    1 1.00
         0.34506591841                   1
 p    1 1.00
         0.11134513813                   1
 d    5 1.00
           51.23535492  0.0041015169444301
          15.616239482  -0.0051611249493146
          4.5266002139    0.29635196981753
          2.0529808766    0.51995196518892
         0.87640281623    0.31750716843876
 d    1 1.00
                 0.309                   1

18 0
 s    6 1.00
          445.90489176  0.0022025754561624
          23.336842412   -0.16476917790558
          19.583446104    0.40052364264037
          8.5112089186   -0.83034405336891
          2.1996161861    0.91034903894187
          1.0668970454    0.46345033669896
 s    2 1.00
          11.720547572  -0.046972984527237
          1.7625986449     1.0252380966471
 s    1 1.00
         0.28697476318                   1
 s    1 1.00
         0.11227609607                   1
 p    4 1.00
          20.499027254   0.084562108576311
          10.558754576   -0.42051679185026
          1.5015895485     0.9157047730546
         0.64597173095    0.18397852281308
 p    1 1.00
          3.0288656771                   1
 p    1 1.00
         0.34506591841                   1
 p    1 1.00
         0.11134513813                   1
 d    5 1.00
           51.23535492  0.0041015169444301
          15.616239482  -0.0051611249493146
          4.5266002139    0.29635196981753
          2.0529808766    0.51995196518892
         0.87640281623    0.31750716843876
 d    1 1.00
                 0.309                   1

19 0
 s    6 1.00
          445.90489176  0.0022025754561624
          23.336842412   -0.16476917790558
          19.583446104    0.40052364264037
          8.5112089186   -0.83034405336891
          2.1996161861    0.91034903894187
          1.0668970454    0.46345033669896
 s    2 1.00
          11.720547572  -0.046972984527237
          1.7625986449     1.0252380966471
 s    1 1.00
         0.28697476318                   1
 s    1 1.00
         0.11227609607                   1
 p    4 1.00
          20.499027254   0.084562108576311
          10.558754576   -0.42051679185026
          1.5015895485     0.9157047730546
         0.64597173095    0.18397852281308
 p    1 1.00
          3.0288656771                   1
 p    1 1.00
         0.34506591841                   1
 p    1 1.00
         0.11134513813                   1
 d    5 1.00
           51.23535492  0.0041015169444301
          15.616239482  -0.0051611249493146
          4.5266002139    0.29635196981753
          2.0529808766    0.51995196518892
         0.87640281623    0.31750716843876
 d    1 1.00
                 0.309                   1

20 0
 s    6 1.00
          55.727520333  0.0030229398792401
          20.302912827   -0.14617744364668
           14.55862875    0.38247858446898
          6.5370530973   -0.68495343489743
          1.5933900686    0.97658689205599
         0.83051419711    0.33195675186838
 s    2 1.00
          8.0719473648  -0.064432974600192
           1.416573749     1.0374469808883
 s    1 1.00
          0.2041893337                   1
 s    1 1.00
        0.077159007761                   1
 p    4 1.00
          9.5531412199    0.55073462105566
          7.5327685129   -0.97604901828593
          1.1185539567    0.86371664043596
         0.53739855255    0.25918281328032
 p    1 1.00
          2.1359869828                   1
 p    1 1.00
         0.20027494801                   1
 p    1 1.00
        0.063408011513                   1
 d    5 1.00
          13.494505735   0.011860978800904
          7.0609770411  -0.068419120498775
          2.1581835375    0.34830169166445
          1.0148541418    0.49738884511814
          0.4463267292    0.30426691151759
 d    1 1.00
                 0.175                   1

21 0
 s    6 1.00
          445.90489176  0.0022025754561624
          23.336842412   -0.16476917790558
          19.583446104    0.40052364264037
          8.5112089186   -0.83034405336891
          2.1996161861    0.91034903894187
          1.0668970454    0.46345033669896
 s    2 1.00
          11.720547572  -0.046972984527237
          1.7625986449     1.0252380966471
 s    1 1.00
         0.28697476318                   1
 s    1 1.00
         0.11227609607                   1
 p    4 1.00
          20.499027254   0.084562108576311
          10.558754576   -0.42051679185026
          1.5015895485     0.9157047730546
         0.64597173095    0.18397852281308
 p    1 1.00
          3.0288656771                   1
 p    1 1.00
         0.34506591841                   1
 p    1 1.00
         0.11134513813                   1
 d    5 1.00
           51.23535492  0.0041015169444301
          15.616239482  -0.0051611249493146
          4.5266002139    0.29635196981753
          2.0529808766    0.51995196518892
         0.87640281623    0.31750716843876
 d    1 1.00
                 0.309                   1

22 0
 s    6 1.00
          445.90489176  0.0022025754561624
          23.336842412   -0.16476917790558
          19.583446104    0.40052364264037
          8.5112089186   -0.83034405336891
          2.1996161861    0.91034903894187
          1.0668970454    0.46345033669896
 s    2 1.00
          11.720547572  -0.046972984527237
          1.7625986449     1.0252380966471
 s    1 1.00
         0.28697476318                   1
 s    1 1.00
         0.11227609607                   1
 p    4 1.00
          20.499027254   0.084562108576311
          10.558754576   -0.42051679185026
          1.5015895485     0.9157047730546
         0.64597173095    0.18397852281308
 p    1 1.00
          3.0288656771                   1
 p    1 1.00
         0.34506591841                   1
 p    1 1.00
         0.11134513813                   1
 d    5 1.00
           51.23535492  0.0041015169444301
          15.616239482  -0.0051611249493146
          4.5266002139    0.29635196981753
          2.0529808766    0.51995196518892
         0.87640281623    0.31750716843876
 d    1 1.00
                 0.309                   1

23 0
 s    6 1.00
          445.90489176  0.0022025754561624
          23.336842412   -0.16476917790558
          19.583446104    0.40052364264037
          8.5112089186   -0.83034405336891
          2.1996161861    0.91034903894187
          1.0668970454    0.46345033669896
 s    2 1.00
          11.720547572  -0.046972984527237
          1.7625986449     1.0252380966471
 s    1 1.00
         0.28697476318                   1
 s    1 1.00
         0.11227609607                   1
 p    4 1.00
          20.499027254   0.084562108576311
          10.558754576   -0.42051679185026
          1.5015895485     0.9157047730546
         0.64597173095    0.18397852281308
 p    1 1.00
          3.0288656771                   1
 p    1 1.00
         0.34506591841                   1
 p    1 1.00
         0.11134513813                   1
 d    5 1.00
           51.23535492  0.0041015169444301
          15.616239482  -0.0051611249493146
          4.5266002139    0.29635196981753
          2.0529808766    0.51995196518892
         0.87640281623    0.31750716843876
 d    1 1.00
                 0.309                   1

24 0
 s    6 1.00
          445.90489176  0.0022025754561624
          23.336842412   -0.16476917790558
          19.583446104    0.40052364264037
          8.5112089186   -0.83034405336891
          2.1996161861    0.91034903894187
          1.0668970454    0.46345033669896
 s    2 1.00
          11.720547572  -0.046972984527237
          1.7625986449     1.0252380966471
 s    1 1.00
         0.28697476318                   1
 s    1 1.00
         0.11227609607                   1
 p    4 1.00
          20.499027254   0.084562108576311
          10.558754576   -0.42051679185026
          1.5015895485     0.9157047730546
         0.64597173095    0.18397852281308
 p    1 1.00
          3.0288656771                   1
 p    1 1.00
         0.34506591841                   1
 p    1 1.00
         0.11134513813                   1
 d    5 1.00
           51.23535492  0.0041015169444301
          15.616239482  -0.0051611249493146
          4.5266002139    0.29635196981753
          2.0529808766    0.51995196518892
         0.87640281623    0.31750716843876
 d    1 1.00
                 0.309                   1

25 0
 s    5 1.00
          1238.4016938  0.0055173650481097
          186.29004992   0.041088828555946
          42.251176346     0.1822538212649
          11.676557932    0.46828459437429
          3.5930506482    0.44575817336002
 s    1 1.00
         0.40245147363                   1
 s    1 1.00
         0.13090182668                   1
 p    3 1.00
          9.4680970621   0.056888332011037
          2.0103545142    0.31294059336471
         0.54771004707    0.76065016509135
 p    1 1.00
         0.15268613795                   1
 d    1 1.00
                   0.8                   1

26 0
 s    5 1.00
          1712.8415853  -0.0054477995804909
          257.64812677  -0.040627174632423
          58.458245853   -0.18111962250584
          16.198367905   -0.46843975563173
          5.0052600809   -0.44616846289231
 s    1 1.00
         0.58731856571                   1
 s    1 1.00
         0.18764592253                   1
 p    3 1.00
          13.571470233  -0.058848116969522
          2.9257372874   -0.32024624762471
         0.79927750754   -0.75328226520436
 p    1 1.00
         0.21954348034                   1
 d    1 1.00
                     1                   1

27 0
 s    3 1.00
             13.010701   0.033485484812989
             1.9622572    0.23472187088125
            0.44453796    0.81377028525955
 s    1 1.00
            0.12194962                   1
 p    1 1.00
                   0.8                   1

28 0
 s    3 1.00
             13.010701   0.033485484812989
             1.9622572    0.23472187088125
            0.44453796    0.81377028525955
 s    1 1.00
            0.12194962                   1
 p    1 1.00
                   0.8                   1

29 0
 s    3 1.00
             13.010701   0.033485484812989
             1.9622572    0.23472187088125
            0.44453796    0.81377028525955
 s    1 1.00
            0.12194962                   1
 p    1 1.00
                   0.8                   1

30 0
 s    3 1.00
             13.010701   0.033485484812989
             1.9622572    0.23472187088125
            0.44453796    0.81377028525955
 s    1 1.00
            0.12194962                   1
 p    1 1.00
                   0.8                   1

31 0
 s    3 1.00
             13.010701   0.033485484812989
             1.9622572    0.23472187088125
            0.44453796    0.81377028525955
 s    1 1.00
            0.12194962                   1
 p    1 1.00
                   0.8                   1

32 0
 s    3 1.00
             13.010701   0.033485484812989
             1.9622572    0.23472187088125
            0.44453796    0.81377028525955
 s    1 1.00
            0.12194962                   1
 p    1 1.00
                   0.8                   1

33 0
 s    5 1.00
          1238.4016938  0.0055173650481097
          186.29004992   0.041088828555946
          42.251176346     0.1822538212649
          11.676557932    0.46828459437429
          3.5930506482    0.44575817336002
 s    1 1.00
         0.40245147363                   1
 s    1 1.00
         0.13090182668                   1
 p    3 1.00
          9.4680970621   0.056888332011037
          2.0103545142    0.31294059336471
         0.54771004707    0.76065016509135
 p    1 1.00
         0.15268613795                   1
 d    1 1.00
                   0.8                   1

34 0
 s    5 1.00
          1712.8415853  -0.0054477995804909
          257.64812677  -0.040627174632423
          58.458245853   -0.18111962250584
          16.198367905   -0.46843975563173
          5.0052600809   -0.44616846289231
 s    1 1.00
         0.58731856571                   1
 s    1 1.00
         0.18764592253                   1
 p    3 1.00
          13.571470233  -0.058848116969522
          2.9257372874   -0.32024624762471
         0.79927750754   -0.75328226520436
 p    1 1.00
         0.21954348034                   1
 d    1 1.00
                     1                   1

35 0
 s    3 1.00
             13.010701   0.033485484812989
             1.9622572    0.23472187088125
            0.44453796    0.81377028525955
 s    1 1.00
            0.12194962                   1
 p    1 1.00
                   0.8                   1

36 0
 s    3 1.00
             13.010701   0.033485484812989
             1.9622572    0.23472187088125
            0.44453796    0.81377028525955
 s    1 1.00
            0.12194962                   1
 p    1 1.00
                   0.8                   1

37 0
 s    3 1.00
             13.010701   0.033485484812989
             1.9622572    0.23472187088125
            0.44453796    0.81377028525955
 s    1 1.00
            0.12194962                   1
 p    1 1.00
                   0.8                   1

38 0
 s    3 1.00
             13.010701   0.033485484812989
             1.9622572    0.23472187088125
            0.44453796    0.81377028525955
 s    1 1.00
            0.12194962                   1
 p    1 1.00
                   0.8                   1

39 0
 s    3 1.00
             13.010701   0.033485484812989
             1.9622572    0.23472187088125
            0.44453796    0.81377028525955
 s    1 1.00
            0.12194962                   1
 p    1 1.00
                   0.8                   1

40 0
 s    3 1.00
             13.010701   0.033485484812989
             1.9622572    0.23472187088125
            0.44453796    0.81377028525955
 s    1 1.00
            0.12194962                   1
 p    1 1.00
                   0.8                   1

41 0
 s    5 1.00
          1238.4016938  0.0055173650481097
          186.29004992   0.041088828555946
          42.251176346     0.1822538212649
          11.676557932    0.46828459437429
          3.5930506482    0.44575817336002
 s    1 1.00
         0.40245147363                   1
 s    1 1.00
         0.13090182668                   1
 p    3 1.00
          9.4680970621   0.056888332011037
          2.0103545142    0.31294059336471
         0.54771004707    0.76065016509135
 p    1 1.00
         0.15268613795                   1
 d    1 1.00
                   0.8                   1

42 0
 s    5 1.00
          1712.8415853  -0.0054477995804909
          257.64812677  -0.040627174632423
          58.458245853   -0.18111962250584
          16.198367905   -0.46843975563173
          5.0052600809   -0.44616846289231
 s    1 1.00
         0.58731856571                   1
 s    1 1.00
         0.18764592253                   1
 p    3 1.00
          13.571470233  -0.058848116969522
          2.9257372874   -0.32024624762471
         0.79927750754   -0.75328226520436
 p    1 1.00
         0.21954348034                   1
 d    1 1.00
                     1                   1

43 0
 s    3 1.00
             13.010701   0.033485484812989
             1.9622572    0.23472187088125
            0.44453796    0.81377028525955
 s    1 1.00
            0.12194962                   1
 p    1 1.00
                   0.8                   1

44 0
 s    3 1.00
             13.010701   0.033485484812989
             1.9622572    0.23472187088125
            0.44453796    0.81377028525955
 s    1 1.00
            0.12194962                   1
 p    1 1.00
                   0.8                   1

45 0
 s    3 1.00
             13.010701   0.033485484812989
             1.9622572    0.23472187088125
            0.44453796    0.81377028525955
 s    1 1.00
            0.12194962                   1
 p    1 1.00
                   0.8                   1

46 0
 s    3 1.00
             13.010701   0.033485484812989
             1.9622572    0.23472187088125
            0.44453796    0.81377028525955
 s    1 1.00
            0.12194962                   1
 p    1 1.00
                   0.8                   1

47 0
 s    3 1.00
             13.010701   0.033485484812989
             1.9622572    0.23472187088125
            0.44453796    0.81377028525955
 s    1 1.00
            0.12194962                   1
 p    1 1.00
                   0.8                   1

48 0
 s    3 1.00
             13.010701   0.033485484812989
             1.9622572    0.23472187088125
            0.44453796    0.81377028525955
 s    1 1.00
            0.12194962                   1
 p    1 1.00
                   0.8                   1

49 0
 s    5 1.00
          1238.4016938  0.0055173650481097
          186.29004992   0.041088828555946
          42.251176346     0.1822538212649
          11.676557932    0.46828459437429
          3.5930506482    0.44575817336002
 s    1 1.00
         0.40245147363                   1
 s    1 1.00
         0.13090182668                   1
 p    3 1.00
          9.4680970621   0.056888332011037
          2.0103545142    0.31294059336471
         0.54771004707    0.76065016509135
 p    1 1.00
         0.15268613795                   1
 d    1 1.00
                   0.8                   1

50 0
 s    5 1.00
          1712.8415853  -0.0054477995804909
          257.64812677  -0.040627174632423
          58.458245853   -0.18111962250584
          16.198367905   -0.46843975563173
          5.0052600809   -0.44616846289231
 s    1 1.00
         0.58731856571                   1
 s    1 1.00
         0.18764592253                   1
 p    3 1.00
          13.571470233  -0.058848116969522
          2.9257372874   -0.32024624762471
         0.79927750754   -0.75328226520436
 p    1 1.00
         0.21954348034                   1
 d    1 1.00
                     1                   1

51 0
 s    3 1.00
             13.010701   0.033485484812989
             1.9622572    0.23472187088125
            0.44453796    0.81377028525955
 s    1 1.00
            0.12194962                   1
 p    1 1.00
                   0.8                   1

52 0
 s    3 1.00
             13.010701   0.033485484812989
             1.9622572    0.23472187088125
            0.44453796    0.81377028525955
 s    1 1.00
            0.12194962                   1
 p    1 1.00
                   0.8                   1

53 0
 s    3 1.00
             13.010701   0.033485484812989
             1.9622572    0.23472187088125
            0.44453796    0.81377028525955
 s    1 1.00
            0.12194962                   1
 p    1 1.00
                   0.8                   1

54 0
 s    3 1.00
             13.010701   0.033485484812989
             1.9622572    0.23472187088125
            0.44453796    0.81377028525955
 s    1 1.00
            0.12194962                   1
 p    1 1.00
                   0.8                   1

55 0
 s    3 1.00
             13.010701   0.033485484812989
             1.9622572    0.23472187088125
            0.44453796    0.81377028525955
 s    1 1.00
            0.12194962                   1
 p    1 1.00
                   0.8                   1

56 0
 s    3 1.00
             13.010701   0.033485484812989
             1.9622572    0.23472187088125
            0.44453796    0.81377028525955
 s    1 1.00
            0.12194962                   1
 p    1 1.00
                   0.8                   1

57 0
 s    5 1.00
          1238.4016938  0.0055173650481097
          186.29004992   0.041088828555946
          42.251176346     0.1822538212649
          11.676557932    0.46828459437429
          3.5930506482    0.44575817336002
 s    1 1.00
         0.40245147363                   1
 s    1 1.00
         0.13090182668                   1
 p    3 1.00
          9.4680970621   0.056888332011037
          2.0103545142    0.31294059336471
         0.54771004707    0.76065016509135
 p    1 1.00
         0.15268613795                   1
 d    1 1.00
                   0.8                   1

58 0
 s    5 1.00
          1712.8415853  -0.0054477995804909
          257.64812677  -0.040627174632423
          58.458245853   -0.18111962250584
          16.198367905   -0.46843975563173
          5.0052600809   -0.44616846289231
 s    1 1.00
         0.58731856571                   1
 s    1 1.00
         0.18764592253                   1
 p    3 1.00
          13.571470233  -0.058848116969522
          2.9257372874   -0.32024624762471
         0.79927750754   -0.75328226520436
 p    1 1.00
         0.21954348034                   1
 d    1 1.00
                     1                   1

59 0
 s    3 1.00
             13.010701   0.033485484812989
             1.9622572    0.23472187088125
            0.44453796    0.81377028525955
 s    1 1.00
            0.12194962                   1
 p    1 1.00
                   0.8                   1

60 0
 s    3 1.00
             13.010701   0.033485484812989
             1.9622572    0.23472187088125
            0.44453796    0.81377028525955
 s    1 1.00
            0.12194962                   1
 p    1 1.00
                   0.8                   1

61 0
 s    3 1.00
             13.010701   0.033485484812989
             1.9622572    0.23472187088125
            0.44453796    0.81377028525955
 s    1 1.00
            0.12194962                   1
 p    1 1.00
                   0.8                   1

62 0
 s    3 1.00
             13.010701   0.033485484812989
             1.9622572    0.23472187088125
            0.44453796    0.81377028525955
 s    1 1.00
            0.12194962                   1
 p    1 1.00
                   0.8                   1

63 0
 s    3 1.00
             13.010701   0.033485484812989
             1.9622572    0.23472187088125
            0.44453796    0.81377028525955
 s    1 1.00
            0.12194962                   1
 p    1 1.00
                   0.8                   1

64 0
 s    3 1.00
             13.010701   0.033485484812989
             1.9622572    0.23472187088125
            0.44453796    0.81377028525955
 s    1 1.00
            0.12194962                   1
 p    1 1.00
                   0.8                   1

65 0
 s    5 1.00
          1238.4016938  0.0055173650481097
          186.29004992   0.041088828555946
          42.251176346     0.1822538212649
          11.676557932    0.46828459437429
          3.5930506482    0.44575817336002
 s    1 1.00
         0.40245147363                   1
 s    1 1.00
         0.13090182668                   1
 p    3 1.00
          9.4680970621   0.056888332011037
          2.0103545142    0.31294059336471
         0.54771004707    0.76065016509135
 p    1 1.00
         0.15268613795                   1
 d    1 1.00
                   0.8                   1

66 0
 s    5 1.00
          1712.8415853  -0.0054477995804909
          257.64812677  -0.040627174632423
          58.458245853   -0.18111962250584
          16.198367905   -0.46843975563173
          5.0052600809   -0.44616846289231
 s    1 1.00
         0.58731856571                   1
 s    1 1.00
         0.18764592253                   1
 p    3 1.00
          13.571470233  -0.058848116969522
          2.9257372874   -0.32024624762471
         0.79927750754   -0.75328226520436
 p    1 1.00
         0.21954348034                   1
 d    1 1.00
                     1                   1

67 0
 s    3 1.00
             13.010701   0.033485484812989
             1.9622572    0.23472187088125
            0.44453796    0.81377028525955
 s    1 1.00
            0.12194962                   1
 p    1 1.00
                   0.8                   1

68 0
 s    3 1.00
             13.010701   0.033485484812989
             1.9622572    0.23472187088125
            0.44453796    0.81377028525955
 s    1 1.00
            0.12194962                   1
 p    1 1.00
                   0.8                   1

69 0
 s    3 1.00
             13.010701   0.033485484812989
             1.9622572    0.23472187088125
            0.44453796    0.81377028525955
 s    1 1.00
            0.12194962                   1
 p    1 1.00
                   0.8                   1

70 0
 s    3 1.00
             13.010701   0.033485484812989
             1.9622572    0.23472187088125
            0.44453796    0.81377028525955
 s    1 1.00
            0.12194962                   1
 p    1 1.00
                   0.8                   1

71 0
 s    3 1.00
             13.010701   0.033485484812989
             1.9622572    0.23472187088125
            0.44453796    0.81377028525955
 s    1 1.00
            0.12194962                   1
 p    1 1.00
                   0.8                   1

72 0
 s    3 1.00
             13.010701   0.033485484812989
             1.9622572    0.23472187088125
            0.44453796    0.81377028525955
 s    1 1.00
            0.12194962                   1
 p    1 1.00
                   0.8                   1

73 0
 s    5 1.00
          1238.4016938  0.0055173650481097
          186.29004992   0.041088828555946
          42.251176346     0.1822538212649
          11.676557932    0.46828459437429
          3.5930506482    0.44575817336002
 s    1 1.00
         0.40245147363                   1
 s    1 1.00
         0.13090182668                   1
 p    3 1.00
          9.4680970621   0.056888332011037
          2.0103545142    0.31294059336471
         0.54771004707    0.76065016509135
 p    1 1.00
         0.15268613795                   1
 d    1 1.00
                   0.8                   1

74 0
 s    5 1.00
          1712.8415853  -0.0054477995804909
          257.64812677  -0.040627174632423
          58.458245853   -0.18111962250584
          16.198367905   -0.46843975563173
          5.0052600809   -0.44616846289231
 s    1 1.00
         0.58731856571                   1
 s    1 1.00
         0.18764592253                   1
 p    3 1.00
          13.571470233  -0.058848116969522
          2.9257372874   -0.32024624762471
         0.79927750754   -0.75328226520436
 p    1 1.00
         0.21954348034                   1
 d    1 1.00
                     1                   1

75 0
 s    3 1.00
             13.010701   0.033485484812989
             1.9622572    0.23472187088125
            0.44453796    0.81377028525955
 s    1 1.00
            0.12194962                   1
 p    1 1.00
                   0.8                   1

76 0
 s    3 1.00
             13.010701   0.033485484812989
             1.9622572    0.23472187088125
            0.44453796    0.81377028525955
 s    1 1.00
            0.12194962                   1
 p    1 1.00
                   0.8                   1

77 0
 s    3 1.00
             13.010701   0.033485484812989
             1.9622572    0.23472187088125
            0.44453796    0.81377028525955
 s    1 1.00
            0.12194962                   1
 p    1 1.00
                   0.8                   1

78 0
 s    3 1.00
             13.010701   0.033485484812989
             1.9622572    0.23472187088125
            0.44453796    0.81377028525955
 s    1 1.00
            0.12194962                   1
 p    1 1.00
                   0.8                   1

79 0
 s    3 1.00
             13.010701   0.033485484812989
             1.9622572    0.23472187088125
            0.44453796    0.81377028525955
 s    1 1.00
            0.12194962                   1
 p    1 1.00
                   0.8                   1

80 0
 s    3 1.00
             13.010701   0.033485484812989
             1.9622572    0.23472187088125
            0.44453796    0.81377028525955
 s    1 1.00
            0.12194962                   1
 p    1 1.00
                   0.8                   1

81 0
 s    5 1.00
          1238.4016938  0.0055173650481097
          186.29004992   0.041088828555946
          42.251176346     0.1822538212649
          11.676557932    0.46828459437429
          3.5930506482    0.44575817336002
 s    1 1.00
         0.40245147363                   1
 s    1 1.00
         0.13090182668                   1
 p    3 1.00
          9.4680970621   0.056888332011037
          2.0103545142    0.31294059336471
         0.54771004707    0.76065016509135
 p    1 1.00
         0.15268613795                   1
 d    1 1.00
                   0.8                   1

82 0
 s    5 1.00
          1712.8415853  -0.0054477995804909
          257.64812677  -0.040627174632423
          58.458245853   -0.18111962250584
          16.198367905   -0.46843975563173
          5.0052600809   -0.44616846289231
 s    1 1.00
         0.58731856571                   1
 s    1 1.00
         0.18764592253                   1
 p    3 1.00
          13.571470233  -0.058848116969522
          2.9257372874   -0.32024624762471
         0.79927750754   -0.75328226520436
 p    1 1.00
         0.21954348034                   1
 d    1 1.00
                     1                   1

83 0
 s    3 1.00
             13.010701   0.033485484812989
             1.9622572    0.23472187088125
            0.44453796    0.81377028525955
 s    1 1.00
            0.12194962                   1
 p    1 1.00
                   0.8                   1

84 0
 s    3 1.00
             13.010701   0.033485484812989
             1.9622572    0.23472187088125
            0.44453796    0.81377028525955
 s    1 1.00
            0.12194962                   1
 p    1 1.00
                   0.8                   1

85 0
 s    3 1.00
             13.010701   0.033485484812989
             1.9622572    0.23472187088125
            0.44453796    0.81377028525955
 s    1 1.00
            0.12194962                   1
 p    1 1.00
                   0.8                   1

86 0
 s    3 1.00
             13.010701   0.033485484812989
             1.9622572    0.23472187088125
            0.44453796    0.81377028525955
 s    1 1.00
            0.12194962                   1
 p    1 1.00
                   0.8                   1

87 0
 s    3 1.00
             13.010701   0.033485484812989
             1.9622572    0.23472187088125
            0.44453796    0.81377028525955
 s    1 1.00
            0.12194962                   1
 p    1 1.00
                   0.8                   1

88 0
 s    3 1.00
             13.010701   0.033485484812989
             1.9622572    0.23472187088125
            0.44453796    0.81377028525955
 s    1 1.00
            0.12194962                   1
 p    1 1.00
                   0.8                   1

89 0
 s    5 1.00
          1238.4016938  0.0055173650481097
          186.29004992   0.041088828555946
          42.251176346     0.1822538212649
          11.676557932    0.46828459437429
          3.5930506482    0.44575817336002
 s    1 1.00
         0.40245147363                   1
 s    1 1.00
         0.13090182668                   1
 p    3 1.00
          9.4680970621   0.056888332011037
          2.0103545142    0.31294059336471
         0.54771004707    0.76065016509135
 p    1 1.00
         0.15268613795                   1
 d    1 1.00
                   0.8                   1

90 0
 s    5 1.00
          1712.8415853  -0.0054477995804909
          257.64812677  -0.040627174632423
          58.458245853   -0.18111962250584
          16.198367905   -0.46843975563173
          5.0052600809   -0.44616846289231
 s    1 1.00
         0.58731856571                   1
 s    1 1.00
         0.18764592253                   1
 p    3 1.00
          13.571470233  -0.058848116969522
          2.9257372874   -0.32024624762471
         0.79927750754   -0.75328226520436
 p    1 1.00
         0.21954348034                   1
 d    1 1.00
                     1                   1

91 0
 s    3 1.00
             13.010701   0.033485484812989
             1.9622572    0.23472187088125
            0.44453796    0.81377028525955
 s    1 1.00
            0.12194962                   1
 p    1 1.00
                   0.8                   1

92 0
 s    3 1.00
             13.010701   0.033485484812989
             1.9622572    0.23472187088125
            0.44453796    0.81377028525955
 s    1 1.00
            0.12194962                   1
 p    1 1.00
                   0.8                   1

93 0
 s    3 1.00
             13.010701   0.033485484812989
             1.9622572    0.23472187088125
            0.44453796    0.81377028525955
 s    1 1.00
            0.12194962                   1
 p    1 1.00
                   0.8                   1

94 0
 s    3 1.00
             13.010701   0.033485484812989
             1.9622572    0.23472187088125
            0.44453796    0.81377028525955
 s    1 1.00
            0.12194962                   1
 p    1 1.00
                   0.8                   1

95 0
 s    3 1.00
             13.010701   0.033485484812989
             1.9622572    0.23472187088125
            0.44453796    0.81377028525955
 s    1 1.00
            0.12194962                   1
 p    1 1.00
                   0.8                   1

96 0
 s    3 1.00
             13.010701   0.033485484812989
             1.9622572    0.23472187088125
            0.44453796    0.81377028525955
 s    1 1.00
            0.12194962                   1
 p    1 1.00
                   0.8                   1

97 0
 s    5 1.00
          1238.4016938  0.0055173650481097
          186.29004992   0.041088828555946
          42.251176346     0.1822538212649
          11.676557932    0.46828459437429
          3.5930506482    0.44575817336002
 s    1 1.00
         0.40245147363                   1
 s    1 1.00
         0.13090182668                   1
 p    3 1.00
          9.4680970621   0.056888332011037
          2.0103545142    0.31294059336471
         0.54771004707    0.76065016509135
 p    1 1.00
         0.15268613795                   1
 d    1 1.00
                   0.8                   1

98 0
 s    5 1.00
          1712.8415853  -0.0054477995804909
          257.64812677  -0.040627174632423
          58.458245853   -0.18111962250584
          16.198367905   -0.46843975563173
          5.0052600809   -0.44616846289231
 s    1 1.00
         0.58731856571                   1
 s    1 1.00
         0.18764592253                   1
 p    3 1.00
          13.571470233  -0.058848116969522
          2.9257372874   -0.32024624762471
         0.79927750754   -0.75328226520436
 p    1 1.00
         0.21954348034                   1
 d    1 1.00
                     1                   1

99 0
 s    3 1.00
             13.010701   0.033485484812989
             1.9622572    0.23472187088125
            0.44453796    0.81377028525955
 s    1 1.00
            0.12194962                   1
 p    1 1.00
                   0.8                   1

100 0
 s    3 1.00
             13.010701   0.033485484812989
             1.9622572    0.23472187088125
            0.44453796    0.81377028525955
 s    1 1.00
            0.12194962                   1
 p    1 1.00
                   0.8                   1

101 0
 s    3 1.00
             13.010701   0.033485484812989
             1.9622572    0.23472187088125
            0.44453796    0.81377028525955
 s    1 1.00
            0.12194962                   1
 p    1 1.00
                   0.8                   1

102 0
 s    3 1.00
             13.010701   0.033485484812989
             1.9622572    0.23472187088125
            0.44453796    0.81377028525955
 s    1 1.00
            0.12194962                   1
 p    1 1.00
                   0.8                   1

103 0
 s    3 1.00
             13.010701   0.033485484812989
             1.9622572    0.23472187088125
            0.44453796    0.81377028525955
 s    1 1.00
            0.12194962                   1
 p    1 1.00
                   0.8                   1

104 0
 s    3 1.00
             13.010701   0.033485484812989
             1.9622572    0.23472187088125
            0.44453796    0.81377028525955
 s    1 1.00
            0.12194962                   1
 p    1 1.00
                   0.8                   1

105 0
 s    5 1.00
          1238.4016938  0.0055173650481097
          186.29004992   0.041088828555946
          42.251176346     0.1822538212649
          11.676557932    0.46828459437429
          3.5930506482    0.44575817336002
 s    1 1.00
         0.40245147363                   1
 s    1 1.00
         0.13090182668                   1
 p    3 1.00
          9.4680970621   0.056888332011037
          2.0103545142    0.31294059336471
         0.54771004707    0.76065016509135
 p    1 1.00
         0.15268613795                   1
 d    1 1.00
                   0.8                   1

106 0
 s    5 1.00
          1712.8415853  -0.0054477995804909
          257.64812677  -0.040627174632423
          58.458245853   -0.18111962250584
          16.198367905   -0.46843975563173
          5.0052600809   -0.44616846289231
 s    1 1.00
         0.58731856571                   1
 s    1 1.00
         0.18764592253                   1
 p    3 1.00
          13.571470233  -0.058848116969522
          2.9257372874   -0.32024624762471
         0.79927750754   -0.75328226520436
 p    1 1.00
         0.21954348034                   1
 d    1 1.00
                     1                   1

107 0
 s    3 1.00
             13.010701   0.033485484812989
             1.9622572    0.23472187088125
            0.44453796    0.81377028525955
 s    1 1.00
            0.12194962                   1
 p    1 1.00
                   0.8                   1

108 0
 s    3 1.00
             13.010701   0.033485484812989
             1.9622572    0.23472187088125
            0.44453796    0.81377028525955
 s    1 1.00
            0.12194962                   1
 p    1 1.00
                   0.8                   1

109 0
 s    3 1.00
             13.010701   0.033485484812989
             1.9622572    0.23472187088125
            0.44453796    0.81377028525955
 s    1 1.00
            0.12194962                   1
 p    1 1.00
                   0.8                   1

110 0
 s    3 1.00
             13.010701   0.033485484812989
             1.9622572    0.23472187088125
            0.44453796    0.81377028525955
 s    1 1.00
            0.12194962                   1
 p    1 1.00
                   0.8                   1

111 0
 s    3 1.00
             13.010701   0.033485484812989
             1.9622572    0.23472187088125
            0.44453796    0.81377028525955
 s    1 1.00
            0.12194962                   1
 p    1 1.00
                   0.8                   1

112 0
 s    3 1.00
             13.010701   0.033485484812989
             1.9622572    0.23472187088125
            0.44453796    0.81377028525955
 s    1 1.00
            0.12194962                   1
 p    1 1.00
                   0.8                   1

113 0
 s    5 1.00
          1238.4016938  0.0055173650481097
          186.29004992   0.041088828555946
          42.251176346     0.1822538212649
          11.676557932    0.46828459437429
          3.5930506482    0.44575817336002
 s    1 1.00
         0.40245147363                   1
 s    1 1.00
         0.13090182668                   1
 p    3 1.00
          9.4680970621   0.056888332011037
          2.0103545142    0.31294059336471
         0.54771004707    0.76065016509135
 p    1 1.00
         0.15268613795                   1
 d    1 1.00
                   0.8                   1

114 0
 s    5 1.00
          1712.8415853  -0.0054477995804909
          257.64812677  -0.040627174632423
          58.458245853   -0.18111962250584
          16.198367905   -0.46843975563173
          5.0052600809   -0.44616846289231
 s    1 1.00
         0.58731856571                   1
 s    1 1.00
         0.18764592253                   1
 p    3 1.00
          13.571470233  -0.058848116969522
          2.9257372874   -0.32024624762471
         0.79927750754   -0.75328226520436
 p    1 1.00
         0.21954348034                   1
 d    1 1.00
                     1                   1

115 0
 s    3 1.00
             13.010701   0.033485484812989
             1.9622572    0.23472187088125
            0.44453796    0.81377028525955
 s    1 1.00
            0.12194962                   1
 p    1 1.00
                   0.8                   1

116 0
 s    3 1.00
             13.010701   0.033485484812989
             1.9622572    0.23472187088125
            0.44453796    0.81377028525955
 s    1 1.00
            0.12194962                   1
 p    1 1.00
                   0.8                   1

117 0
 s    3 1.00
             13.010701   0.033485484812989
             1.9622572    0.23472187088125
            0.44453796    0.81377028525955
 s    1 1.00
            0.12194962                   1
 p    1 1.00
                   0.8                   1

118 0
 s    3 1.00
             13.010701   0.033485484812989
             1.9622572    0.23472187088125
            0.44453796    0.81377028525955
 s    1 1.00
            0.12194962                   1
 p    1 1.00
                   0.8                   1

119 0
 s    3 1.00
             13.010701   0.033485484812989
             1.9622572    0.23472187088125
            0.44453796    0.81377028525955
 s    1 1.00
            0.12194962                   1
 p    1 1.00
                   0.8                   1

120 0
 s    3 1.00
             13.010701   0.033485484812989
             1.9622572    0.23472187088125
            0.44453796    0.81377028525955
 s    1 1.00
            0.12194962                   1
 p    1 1.00
                   0.8                   1

[5d]
[7f]
[9g]
[core]
1 : 60
2 : 28
3 : 28
4 : 28
5 : 28
6 : 28
7 : 28
8 : 60
9 : 28
10 : 28
11 : 28
12 : 28
13 : 28
14 : 60
15 : 28
16 : 28
17 : 28
18 : 28
19 : 28
20 : 60
21 : 28
22 : 28
23 : 28
24 : 28

[MO]
 Sym= A
 Ene=   -0.2579824305
 Spin= Alpha
 Occup=    2.00000
   1    -0.097282407172187
   2    -0.014527484553627
   3      0.13813087276959
   4      0.12450369360505
   5    -0.012781914346342
   6    -0.00094773703675791
   7    -0.015906304509314
   8    -0.012900029617181
   9    -0.00096535215366494
  10    -0.016032199676409
  11     0.035219346823471
  12    0.0013352536285162
  13     0.042779568962943
  14    0.0059135682989627
  15    0.0071209496497898
  16      0.00618312166022
  17    -0.030806469463952
  18    -0.0068021096025718
  19    -0.0033305217786655
  20    -0.023663273215083
  21    -0.0022180445044036
  22    0.0094079360370708
  23    0.0018580280420028
  24    -2.6661090940606e-05
  25    0.0080695220620971
  26    0.00029410123575385
  27    0.0082788617090974
  28    0.0079997629961044
  29    -0.015405616384178
  30    -0.032395035334131
  31    0.0095344186322506
  32    -0.0071255258175597
  33    0.0072479245134385
  34     0.011726069255226
  35    -0.0087451018883611
  36    0.0089125022458092
  37    -0.026506944357508
  38     0.020979368866804
  39    -0.021165601707501
  40    -0.041451434493202
  41     0.023784763427294
  42    -0.024023538978185
  43    0.0035504634925619
  44    0.0012278854905972
  45    -0.00012458114017302
  46    -0.009068287374302
  47    -0.00015257382004402
  48    -0.0039303839478259
  49    -0.0015661411974025
  50    2.6603537697198e-05
  51     0.010433198741686
  52    0.0004338670582137
  53    0.0087393432475713
  54    0.0083734355684254
  55    -0.016572696796328
  56    -0.026823736900216
  57    0.0061882403756243
  58    -0.049381848976937
  59     0.014967654218446
  60    0.0076106695530392
  61    -0.060689294556736
  62     0.018437578633109
  63    -0.018342019643259
  64      0.14175258469232
  65    -0.043161966702162
  66    -0.018413541961243
  67      0.17624321172385
  68    -0.051456933119286
  69     0.001099453216465
  70    0.00048327610626701
  71    0.0013871291750481
  72    0.0025315002051644
  73    0.00045479394088546
  74    -0.00045864550305223
  75    -0.0010074562506227
  76    -0.0011217973914905
  77    -0.00099038966845255
  78    -0.00062754324176039
  79      0.01236954640567
  80     0.011965529959597
  81     -0.02182867834241
  82    -0.057667625690619
  83    0.00076386965925571
  84    -0.014232366647786
  85     0.035404504249437
  86    0.0009461989101886
  87    -0.017555735096712
  88     0.043516718519567
  89    -0.0022326400790624
  90     0.040637854885318
  91     -0.10195771417488
  92    -0.0022054418912704
  93      0.05574502356219
  94     -0.14106556758376
  95    -0.017227204523934
  96    0.0010713435877642
  97    -0.00088895026080667
  98    -0.0014487918191515
  99    0.0003123978601194
 100      0.01918197327963
 101    -0.00080631881466331
 102    0.0019931071899845
 103    0.0016832937659503
 104    -0.00069540870704925
 105    0.0025171737308353
 106    0.0021900529624079
 107    0.0011298642136036
 108    -0.023663374430865
 109     0.026041578713151
 110    -0.00026493024297817
 111    0.0098648514186387
 112     0.031920964593178
 113    -0.00032394475363488
 114     0.012103901220346
 115    -0.075342417736232
 116    0.00060097936656105
 117    -0.029179251455439
 118     -0.09511548007155
 119    0.0014946847487765
 120    -0.030711431774389
 121    0.00029120565395597
 122    -0.00041163096868878
 123    -7.2170174167956e-05
 124    -0.001132590593134
 125    5.2169057577468e-05
 126     0.000867758291873
 127    9.2009653478001e-06
 128    2.822646485624e-05
 129    -0.0011854378170933
 130    0.00020503782018726
 131    0.0050032559132859
 132    0.0046720314846273
 133    -0.0071088236839938
 134    -0.020078497939727
 135    -0.0031521175018657
 136     0.041651737115991
 137    0.0020431560929075
 138    -0.0038701781982565
 139     0.051141644114821
 140    0.0024962341968529
 141    0.0088630170668091
 142     -0.12069854157735
 143    -0.006199674473948
 144     0.012415652263102
 145     -0.14348621151268
 146    -0.0055553738062656
 147    0.0010865835108373
 148    0.00028120674828322
 149    -0.00016369340664035
 150    0.0022832359677035
 151    -5.624355478584e-05
 152    -0.00012388480665832
 153    -0.0003461108891672
 154    2.1823894392878e-05
 155    -0.00087269498876208
 156    0.00048788574606158
 157    0.0014580143743784
 158    0.0011907221932175
 159    0.0031467561494281
 160    -0.020311873317815
 161    0.0050306553492054
 162    -0.00051278652197815
 163     0.018030022193093
 164    0.0061727019188527
 165    -0.00064687534253075
 166     0.022126775531721
 167    -0.015074522217703
 168    0.00087046602023522
 169    -0.051756576924327
 170    -0.013512519841055
 171    0.0052232252397318
 172    -0.069957848609529
 173    -0.00093545747400834
 174    -0.00022860700198873
 175    0.00030397102453095
 176    -0.00019550231185594
 177    -7.7992343763371e-05
 178    -0.0013121884937301
 179    0.00064998506587698
 180    0.00047885049314544
 181    6.3940408191006e-05
 182    0.00019554967394933
 183     -0.30838166620239
 184    -0.046599927171955
 185      0.43111513171732
 186      0.42722136585739
 187    -0.010429636019057
 188    -0.011770115295857
 189     0.012681738295018
 190    -0.010569187564215
 191    -0.011898495576814
 192     0.012852675276227
 193      0.02318788480665
 194     0.033439241826639
 195    -0.029818981450986
 196     0.032797812782895
 197     0.032485299509283
 198     -0.02937947361348
 199    0.00018719115178077
 200     0.003179214394516
 201    0.0091824677271876
 202    -0.0092002840356336
 203    -0.007298244908639
 204    -0.00090411845845035
 205    -0.00088884381557658
 206    -0.0040515995200321
 207    0.0028056242540182
 208    0.0038043227084996
 209     0.014707351312357
 210     0.014148697812779
 211    -0.024039521981004
 212    -0.071406129422905
 213     -0.03107465730561
 214    -0.0095628571631842
 215    0.0033606433401957
 216    -0.038204874473716
 217    -0.011719008858461
 218    0.0041303320544442
 219     0.088672121246751
 220     0.028739467427647
 221    -0.0096629274670153
 222      0.13008794957936
 223     0.029954186826814
 224    -0.013092491258167
 225    0.0086738542760376
 226    0.0019489253703778
 227    -0.00018910080731344
 228    -0.017563565780886
 229    0.0016006164329058
 230    -0.009455525005358
 231    -0.0014611705225336
 232    0.00017226225461795
 233     0.019590527074636
 234    -0.0026094785285232
 235     0.015938205002894
 236     0.015419509476862
 237    -0.027830168430152
 238    -0.068097238609289
 239    9.8757937931038e-05
 240    -0.049476945695564
 241    -0.0008273656209949
 242    0.00011026906413415
 243    -0.061104376138823
 244    -0.00099681113924083
 245    -0.00067027637516409
 246      0.14091141459859
 247    0.0031556658827746
 248    0.0024484090204721
 249      0.21222763851451
 250    -0.0019289922163419
 251    0.0058520585143619
 252    -4.3591988934011e-05
 253    -0.00036075374619401
 254    0.0099076968890088
 255    0.00043205607301686
 256    -0.0056801025788216
 257    0.00035523466724335
 258    0.0015365020581622
 259    -0.0097201442197061
 260    -0.0012903780093241
 261     0.013165961999837
 262      0.01231198330917
 263    -0.014417498135872
 264    -0.069691349168866
 265    -0.0018621957140154
 266    -0.0037542792563384
 267    -0.062487954226585
 268    -0.0022682985207667
 269    -0.0045819563928358
 270    -0.076866397858733
 271    0.0057661416428059
 272     0.011252153430164
 273      0.18019002902004
 274    0.0047291634981725
 275      0.01098667420377
 276      0.24443334038562
 277    -0.0083487340796223
 278    -0.00033363106683474
 279    -0.0017442613038077
 280    1.3927383666523e-06
 281    -0.0001846171325404
 282    0.0042138049532987
 283    3.8127926761964e-05
 284     0.002605614653124
 285    3.6551106238326e-05
 286    0.00047338003450445
 287     0.012385884006997
 288     0.011613897962296
 289    -0.014098460076459
 290     -0.06342249032618
 291     0.058192845003505
 292    -0.0020152492172457
 293    0.0029658507133087
 294     0.071617468625798
 295    -0.0024599253088863
 296    0.0036343134413545
 297     -0.16756792496674
 298    0.0060659209602288
 299    -0.0086985075929609
 300     -0.22869678121885
 301    0.0053228334409433
 302    -0.010062628619798
 303    0.0041459781712218
 304    -0.0007533907368665
 305    0.00018114740683819
 306    -0.0073104087875336
 307    0.0014318867266604
 308    -0.0023888764291608
 309    0.00042274647701846
 310    -0.00052598058417606
 311    0.0043709959388787
 312    -0.0021948211174075
 313    0.0093469660220278
 314    0.0085535850519443
 315    -0.0066767972338681
 316    -0.058122221692795
 317    -0.012388331063273
 318      0.06554382587968
 319     0.014945351245306
 320    -0.015256183619113
 321     0.080536621352547
 322     0.018369402850063
 323     0.035291858086082
 324     -0.18957741446418
 325    -0.043111309592746
 326     0.046761199687286
 327     -0.24507175424534
 328    -0.053741004764828
 329     0.002995108975461
 330    0.00031319906368814
 331    -0.0022370983202994
 332    0.0056348375551665
 333    0.0014895400157784
 334    -0.00049110932016711
 335    -0.00096943155758403
 336    0.0014000516175134
 337    -0.0013105933615554
 338    -0.00023494110050424
 339      -0.1151684293146
 340    -0.017119668469948
 341       0.1619143641685
 342      0.14600243430619
 343    0.0030019697093642
 344    0.0040132739920773
 345    -0.0072411512723216
 346    0.0030094594806998
 347    0.0040602845063123
 348    -0.0072927949147344
 349    -0.0090759086152105
 350     -0.01127490691285
 351     0.020062758168702
 352    -0.0028809306307773
 353     0.003401579044129
 354     0.007168937029285
 355    -0.014547670011507
 356    -0.0022425820839743
 357    0.00092434057655879
 358    -0.012720862716183
 359    0.00051696607996146
 360    0.0054815971317241
 361    0.00099270347977222
 362    -0.00028513945241147
 363    0.0045782303423332
 364    -0.00049279211151805
 365    0.0032643975540463
 366    0.0030027985763208
 367    -0.0027501551239871
 368    -0.018743807019619
 369    -0.024329268565743
 370    0.0034608766454858
 371    0.0016462693957704
 372    -0.029916411348014
 373    0.0042430146238745
 374     0.002011538038123
 375     0.069737671900584
 376    -0.010175294498354
 377    -0.0049729415193285
 378     0.090318367589115
 379    -0.010880409985769
 380    -0.0039308019349858
 381    0.00075219954486796
 382    0.00036122091327192
 383    -0.00023532412985202
 384    -0.0017006332466838
 385    0.00088575652293323
 386    -9.9363937597752e-05
 387    -0.00051850523538506
 388    0.00031966843805673
 389    0.00052830210322157
 390    -0.0011624937033655
 391    0.0059690543056782
 392    0.0056071673442185
 393    -0.0082361364703421
 394    -0.027805025277032
 395    -0.0043765703289379
 396    -0.033491530928634
 397    0.0042296325481473
 398    -0.0053812873337021
 399     -0.04113776669611
 400     0.005200946625093
 401     0.012864928426559
 402     0.096679027357137
 403    -0.012433478011487
 404     0.014506716467847
 405      0.12267778526895
 406    -0.013788037781101
 407    0.0011820549075203
 408    -0.00019449024959538
 409    4.4775872140443e-05
 410    0.0020524837999103
 411    0.00013422230968278
 412    -0.00025465787822962
 413    0.00022284630736787
 414    0.00040860192318783
 415    -0.0004107493080075
 416    -0.00070814101270592
 417     0.011548296102654
 418     0.011229478610101
 419     -0.02274058566715
 420    -0.041012196723668
 421    -0.0060600951602272
 422    -0.0025893860726927
 423    0.0017848289403589
 424    -0.0074268772179861
 425    -0.0031710373857679
 426    0.0021673225341405
 427     0.018303961786638
 428    0.0077506057177143
 429    -0.0060391713616729
 430     0.016757557307587
 431    0.0077055720564566
 432    0.00060225774568962
 433    -0.012435979797293
 434    0.0025704231994537
 435    0.00025708563338108
 436    -0.0014316122748333
 437    0.00035250484525794
 438     0.014225953496014
 439    -0.0032596754675483
 440    -0.00034696853923421
 441    0.0018317311069957
 442    -0.00068494032275433
 443    0.0044609806143904
 444    0.0042035618478224
 445    -0.0065107236045472
 446    -0.018924484736306
 447    0.0010306663780557
 448     0.029496317785355
 449    0.0024505498026891
 450    0.0012585850266956
 451     0.036259015809368
 452    0.0030236258918583
 453    -0.0032204278432741
 454    -0.085015895570441
 455    -0.0068123650316518
 456    -0.0030337199989881
 457     -0.10538583099562
 458    -0.0092624218123423
 459    0.0011214144859441
 460    0.00014455424096169
 461    -0.00061309556087222
 462    0.0023442426598112
 463    6.8860517044136e-05
 464    -0.00074507725829058
 465    0.00020439444819637
 466    0.0010446244508351
 467    -0.001858594309449
 468    -0.00047875714188529
 469    0.0024985679186941
 470    0.0022509248636486
 471    -0.00060259743956478
 472    -0.018147269789328
 473    -0.0010819128997329
 474    0.0016263259807239
 475     0.019595618205955
 476    -0.0013209040336131
 477    0.0019946621654063
 478     0.024096826446179
 479    0.0032699113642218
 480    -0.0047670832925876
 481    -0.055967502539487
 482     0.002519564177807
 483    -0.0051551850412007
 484    -0.075299966920244
 485    -0.0017055726592312
 486    0.00022937316413532
 487    -0.00055125021982946
 488    -0.00016335636694468
 489    0.00018251242612584
 490    0.00018388745590263
 491    -0.00027663299310263
 492    0.00075811336796454
 493    0.00017360273415723
 494    -0.00018720573922452
 495     -0.11810965686816
 496    -0.017723618976061
 497      0.17073209652826
 498      0.14065959479081
 499     0.016560764481594
 500    -0.0011664666989804
 501     0.012511537427651
 502     0.016689595145274
 503     -0.00119412459164
 504     0.012617334406751
 505     -0.04530473448426
 506    0.0012490705969976
 507    -0.035266066379922
 508    -0.0038522443050042
 509     0.010100547330251
 510    -0.0060744219786226
 511    -0.0046913449163006
 512    -0.0073515671037413
 513    0.00026513694460229
 514    -0.042018179468198
 515    0.0014495540024314
 516    0.0019226895413228
 517    0.0024233899295789
 518    -1.6073269813783e-05
 519     0.013228419579898
 520    -0.00023375147355537
 521    0.0011431309450672
 522    0.00090032586962256
 523    0.0036388475824262
 524    -0.019979976287467
 525    -0.017246359196774
 526    -0.0024946162727988
 527    -0.0022749660979732
 528    -0.021170626121961
 529    -0.0030822262900425
 530    -0.0027710908747044
 531     0.049353299679999
 532    0.0066354894623923
 533    0.0072325613763927
 534     0.068403505329622
 535     0.011797167066463
 536    0.0038211577775381
 537    0.00041716496887995
 538    6.7046848709044e-05
 539    7.0855135705406e-05
 540    -0.0010652099125196
 541    -0.00045295643766475
 542    0.00070112393686553
 543    0.00017715737242835
 544    -0.00033133049179957
 545    -0.0010273702456243
 546    -0.00031272508494753
 547    0.0078724617194842
 548    0.0075539287532113
 549    -0.014946781257829
 550    -0.026049946153929
 551    -0.011126920310851
 552    -0.049076566252678
 553    -0.005099759490366
 554    -0.013698889662642
 555    -0.060300897722836
 556    -0.0062724068817289
 557     0.032167297351836
 558      0.14108720391488
 559       0.0150452660925
 560     0.037657262273972
 561      0.17525674462664
 562     0.015418447474191
 563    0.0020094962197312
 564    0.00015642416535437
 565    -0.00021520802274996
 566    0.0025467561197812
 567    -0.0010147465891214
 568    -0.0010446671921738
 569    -0.00054453851429348
 570    0.00012142727894244
 571    -0.0011738681748464
 572    0.00069013165814676
 573    0.0023005608156295
 574    0.0020098257134244
 575    0.00081242550023579
 576    -0.021180225774418
 577    -0.0042077074443293
 578    -0.0028514046941439
 579    -0.029759775014033
 580    -0.0051509087491364
 581    -0.0035208476090452
 582    -0.036505287874409
 583     0.012813976345661
 584    0.0076646495725082
 585     0.085982427962562
 586     0.011031239545007
 587     0.012456122326557
 588      0.10693875827385
 589    -0.0015377698745573
 590    2.3274315897158e-05
 591    -0.00042262420678133
 592    -0.00033155272622687
 593    6.0310457046787e-05
 594    -0.00082649465033983
 595    -0.00025550689257091
 596    -0.00016294821357709
 597    0.00020484044197972
 598    -0.00041502685416118
 599    0.0058168068195206
 600    0.0054241278286758
 601    -0.0080332372369668
 602    -0.023558089864501
 603    -0.008066948578015
 604     0.045181561006949
 605    -0.006627362470664
 606    -0.0099104683921254
 607     0.055465570972702
 608    -0.0081474388219902
 609       0.0235495709693
 610     -0.13098277819952
 611     0.019342980858378
 612     0.026905970338791
 613     -0.15490937442479
 614     0.021709782972207
 615     0.001498758654199
 616    -0.00011266109254081
 617    0.00042920461382002
 618    0.0021510938196182
 619    0.00033981237996344
 620    -0.00077450492547352
 621    9.3178892887238e-05
 622    -0.00032804338127134
 623    -0.00088928087251921
 624    0.00018413515648914
 625     0.001948008528677
 626    -0.0043442716678309
 627    -0.018572480444661
 628    -0.0043444488189363
 629    -0.0032529874072988
 630    -0.0045694117455291
 631    -0.0012438426053589
 632    -0.004685441832976
 633    0.0017155721198446
 634    -0.00035774228255146
 635    -3.1178221333875e-05
 636    -0.00033738322781392
 637    0.00011533006367634
 638    -0.00012184786922279
 639    0.0039279753469422
 640     0.010104593235326
 641    0.0082154707807097
 642    -0.0091949047284993
 643    -0.0089294162741035
 644    -0.00019596382344701
 645    0.0037330873114481
 646    0.0076121982262875
 647    -0.0096087069743426
 648    -0.00025307617609871
 649    -0.00036320034917822
 650    -0.00050518090171181
 651    -8.0852650411222e-05
 652    -0.00020598970283796
 653     0.001216139852118
 654    0.0048840985834192
 655    0.0001830899237479
 656    1.797113823291e-05
 657    -0.00048504590840241
 658    0.0043550759597948
 659    0.0068452317381818
 660    -0.00092577091893318
 661    -0.00025150009679249
 662    -0.0011384707103603
 663    0.0045654937444913
 664    -0.016912901919096
 665    -0.0010093659526419
 666    -0.0011283492054697
 667    0.0001870649081458
 668    0.00093847145544414
 669    0.0033534545716989
 670    -0.00014825396312902
 671    4.6899114571511e-05
 672    -0.00034316088460937
 673    -0.000431806622783
 674    0.0082327745045851
 675    -0.00015239212473687
 676    -0.00035507182091206
 677    -7.2939656925463e-05
 678    0.0027612176991382
 679     0.010722163540843
 680    4.2528003004461e-05
 681    -0.00027447933828706
 682    0.0001293131135891
 683    0.0013369612443695
 684    -5.1605393373493e-05
 685    -0.025967188287426
 686    0.0025913957216456
 687    0.0046924980034153
 688    -0.005356918793757
 689    -0.0036167486625123
 690    0.0051250391296448
 691    -0.0073020782745092
 692    -0.000264337171726
 693    2.9561597552836e-05
 694    0.00010432479711026
 695    0.00021958461764384
 696    1.8600949913644e-05
 697    0.00046325272202468
 698    0.0012353540520576
 699    0.0061810650807768
 700    0.00050860785910249
 701    0.0090566035467914
 702    -0.00086450696015827
 703    0.00024765171474582
 704    -0.014738591996407
 705    -0.00078571064698179
 706    -0.00037485314079415
 707    0.00024507635342118
 708    0.00014677945687996
 709    0.00023284842254403
 710    -0.00018379603149841
 711    0.0031575901575221
 712      -0.0239578853296
 713    7.5825763850533e-06
 714    1.2146826360414e-05
 715    -0.00034573445336829
 716    -0.0036655292515451
 717     0.010628235564557
 718    0.00022063869439908
 719    0.00021244623850294
 720    -0.00017485419116648
 721    0.00046726958514429
 722     0.011567576140692
 723    0.00023838828405434
 724    8.1821467607834e-05
 725    4.6150535495003e-05
 726    0.00017995374512198
 727    0.0054863985023128
 728    2.1978849299275e-05
 729    0.0001114316465827
 730    -0.00012115692674226
 731    0.0010758003399271
 732    0.0026236318701086
 733    0.00016765468256495
 734    0.00016420025138292
 735    -0.0001095034889846
 736    -0.0025941369068395
 737     0.014042670449737
 738    -0.00027925873804253
 739    -0.00035399007032604
 740    0.00044682834632932
 741    0.0020835855748797
 742    -0.0056857276826132
 743    -0.017914375562211
 744    -0.003407298875689
 745    0.0039361400496148
 746     0.003340488438845
 747    4.0619289645187e-05
 748    0.00098712726912017
 749    7.0778008261531e-05
 750    8.1365574878404e-05
 751    0.00014898070092652
 752    -0.00035735623257204
 753    0.00017884262935749
 754    0.00030007200738282
 755    0.00091046286782655
 756    0.0056177819356001
 757    -0.019664536711151
 758    -0.0026269152431089
 759    0.0040763135081599
 760    0.0024488348265986
 761    -0.0052872878191974
 762    0.0066998381171368
 763    0.0054641751995321
 764    8.4191221564458e-05
 765    0.00028574645910101
 766    -0.00049445584775166
 767    0.00014472016849549
 768    0.0004875320787794
 769    0.0051640975712745
 770    0.0096250679121153
 771    0.00020874316395784
 772    0.00066959464754811
 773    0.00052735988381158
 774    0.0053771266174842
 775     0.010014423040507
 776    -0.00068678836638907
 777    0.00063494326851445
 778    0.00079702238604287
 779    0.0051997045286628
 780     0.010115829995727
 781    -0.00073340692414465
 782    0.00072675287440245
 783    -6.0027497556163e-05
 784    0.00017985671457862
 785    0.0068076973107178
 786    -5.0268693562637e-05
 787    2.5843622457573e-05
 788    0.00026414647558558
 789    -0.00026315706778124
 790    0.0069447464575257
 791    -0.00024775677677309
 792    3.6092089437315e-05
 793    5.1096558090285e-05
 794    0.0015660068299294
 795    0.0064162619724114
 796    2.5144395735966e-05
 797    0.00026530681191067
 798    -5.8596299615266e-05
 799    0.0017123332412988
 800    -0.003309502457967
 801    -0.014380243960256
 802    0.0016693185473248
 803    1.2154889333818e-05
 804    -0.0039740964360272
 805    0.0024131009668887
 806     0.002659151408685
 807    0.00059064616219816
 808    0.00031869594415744
 809    1.0977491981389e-05
 810    2.9784730909883e-05
 811    -1.0892280839845e-06
 812    -5.6203270310512e-05
 813    0.0021472921019565
 814    0.0049984804707109
 815    0.0070175675275295
 816    0.00089826305777497
 817    -0.0026863335146982
 818    -0.0044682297374465
 819    -0.00092437200755221
 820    0.0013353186369319
 821    0.0030706944168137
 822    0.00020489992100899
 823    -4.8607396055961e-06
 824    -2.0646742787804e-05
 825    -3.6464238258854e-05
 826    -9.3647888351217e-05
 827    -0.00060335167490987
 828    -0.00084204779548892
 829    0.00052680482600294
 830    -0.00028522899032898
 831    -5.4573655868416e-07
 832     0.002253490246535
 833    -0.0071922146683483
 834    -0.00011750466973016
 835    -0.00043485195774853
 836    -0.00087416059157912
 837    -0.0016353732240096
 838    -0.00073541200660391
 839    -0.00037902775641157
 840    -2.2239438972856e-05
 841    -9.7322262982195e-05
 842    -0.0021938568965484
 843    0.0060507368881705
 844    -0.0002039618643548
 845    -0.00022321040517903
 846    0.00016117205322747
 847    -0.0011971381024474
 848    0.0066046842854533
 849    5.8651369260003e-05
 850    -3.5386491926699e-05
 851    -8.1032393836537e-05
 852    0.0033191552806958
 853    0.0067850738145867
 854    6.9505275468646e-05
 855    -2.1102800493573e-05
 856    0.00018000153231554
 857    0.0023959113586598
 858    -0.0041841907607452
 859    -0.024565847673466
 860    0.0097545973133418
 861    -8.9996522274786e-05
 862    9.2609827103989e-05
 863    0.0033490408427199
 864    0.0013310105171377
 865    0.0030084403665259
 866    0.00048983262882545
 867    -0.00015990731562684
 868    0.00013770693118435
 869    0.00030653444362838
 870    -0.00018523526956056
 871    0.0055218985524348
 872     0.010193043020862
 873     0.037610426764173
 874    0.0050891813230761
 875    -0.0085226760014853
 876    -0.0029852419079995
 877    -0.0045615683290169
 878    0.0057625217620296
 879    0.0042336211008922
 880    0.00010213916696332
 881    -6.7186970969711e-06
 882    -4.9438002192873e-05
 883    0.0002176029104054
 884    0.00034248391368503
 885    -0.00084541284207904
 886    -0.0064591948136069
 887    0.00042695741299947
 888    3.4487202620471e-05
 889    0.00077780531578451
 890    -0.00049227502155822
 891    -0.020932544730617
 892    0.00061089200695088
 893    -0.0010396961811755
 894    -0.0008641107132083
 895    0.0020360318059683
 896     -0.01840638634899
 897    -0.00077808394890783
 898    -0.00024401621361959
 899    0.00027615566226193
 900    -0.0073847600215583
 901     0.012608403341339
 902    -0.00024832785415862
 903    -3.8866937811653e-05
 904    0.00018946363128701
 905    0.0026104747322185
 906    0.0083532207606828
 907    -2.4470018358608e-05
 908    -0.00050525304762895
 909    -0.00044029457948072
 910    0.0052224955937758
 911     0.011024057892641
 912    1.9719249426416e-05
 913    -0.00022045675827299
 914    0.00034848034653175
 915    0.0013268105408455
 916    -0.0016645951233016
 917     -0.01951792069775
 918    -0.002211851139923
 919    -0.0018039397235677
 920    0.0027690003668845
 921    0.0060763342419498
 922    -0.0017843734786269
 923    0.0066651711718655
 924    0.00022299315454057
 925    -5.2507205103162e-05
 926    -7.9193175018885e-06
 927    -0.00038224645538823
 928    -7.3866473632669e-06
 929    0.0042267052566214
 930    0.0091302043645331
 931     0.020261830649236
 932    0.0058901002444041
 933     -0.01073200011469
 934     0.010248162101653
 935    -0.013178044833554
 936     0.011352327025932
 937    -0.013142757965163
 938    0.00014415824487625
 939    0.00020201624991504
 940    -1.9608883080931e-05
 941    -0.000145388895712
 942    -0.000141023934748
 943    0.0016900485118002
 944    -0.032167664426056
 945    0.00098925539329696
 946    -0.0011930107870228
 947    0.0013642804424612
 948    0.00024755557199957
 949    0.0020740789181115
 950    -0.0006121187521241
 951    -0.00030263651782836
 952    -0.00018406509996778
 953    -0.0016488693645429
 954    0.0080104954791112
 955    -0.00040512677053102
 956    -3.8806550904865e-05
 957    4.2208685497904e-05
 958    0.0013950184483788
 959    0.0094700307201973
 960    0.00018746187254685
 961    -0.00014666699147814
 962    0.00045637913458632
 963    0.00067873235084941
 964    0.00021965800572623
 965    -0.00034574325493771
 966    -0.00012035802297275
 967    7.2800286194892e-05
 968    0.0014431012962728
 969     0.014130877950184
 970    0.00027141468446067
 971    -0.00010517274520576
 972    2.8142331973275e-05
 973    -0.00015095668442663
 974    0.0013052994625804
 975    -0.0051316161482916
 976    3.809797440079e-05
 977    0.00062703838625512
 978     0.002458042127337
 979    0.0024538097282305
 980    -0.0028681275095881
 981    0.00080268775199093
 982    0.00016107055926177
 983    -8.7496961990922e-05
 984    -4.890387245988e-05
 985    9.2168020612003e-07
 986    3.3780915487807e-05
 987    -0.00087491307759997
 988    -0.0013047169279674
 989    -0.0059787431450109
 990    -0.0011332964203413
 991    0.0061227553033822
 992    0.0013426679522312
 993    -0.00042562223634424
 994    -0.0078007926866033
 995    -0.0024781341286111
 996    0.00010690247084555
 997    -0.00027967692771042
 998    5.7173703774645e-05
 999    3.9259763472528e-05
 1000    5.4785210513321e-07
 1001    0.00060888765726238
 1002    -0.0089840405016985
 1003    0.00025396962430555
 1004    5.3817868503245e-05
 1005    -0.00011837201048296
 1006    -0.00015212603057783
 1007    0.0066665050430962
 1008    6.734263618324e-05
 1009    0.00018379276759837
 1010    -7.2658084920623e-05
 1011    -0.0020252909625952
 1012     0.011867411547368
 1013    -0.00045762734405357
 1014    3.2567763948676e-05
 1015    0.00048857104534125
 1016    -0.0010760268156038
 1017    -0.0029985188153772
 1018    6.4184401115708e-05
 1019    -9.1063702780206e-05
 1020    -0.00012766809469014
 1021    0.00059060988331584
 1022    0.0029959153851012
 1023    -9.0877363892074e-05
 1024    1.9700607627864e-05
 1025    0.00016313912580007
 1026    -0.00081980722411594
 1027    0.0026513161650419
 1028    -0.00016840480627824
 1029    5.3927060586355e-05
 1030    3.4381139329058e-05
 1031    -0.0020080874164274
 1032    0.0041049479957874
 1033     0.010075690161962
 1034    0.0029806408225693
 1035    -0.0092234139818437
 1036    -0.0025437177480244
 1037    0.0036837358546492
 1038    -0.014580396138604
 1039    -0.0021707106264354
 1040    4.8556271976883e-05
 1041    0.00034812995816117
 1042    -0.00035947495022526
 1043    2.0859117493746e-05
 1044    1.3046370639329e-05
 1045    0.0010359373350298
 1046    0.0025082671454167
 1047    0.0056798328667115
 1048    0.0025728673167449
 1049    0.0073625174937905
 1050    -0.0026353721736628
 1051    -0.00038541512900849
 1052    -0.0094408793989969
 1053    0.0012264075959715
 1054    -7.0928069132306e-05
 1055    -0.00013158194330431
 1056    0.0003855191713541
 1057    -9.3866946218265e-05
 1058    -0.00025700007730526
 1059    0.00021615726749559
 1060     0.010414759559408
 1061    -2.9439257786689e-05
 1062    -9.066452525495e-06
 1063    0.00069187793652902
 1064      0.00234773400646
 1065    -0.023431608491472
 1066    0.0005938467625071
 1067    0.00045064815344649
 1068    -0.00049287190065078
 1069    0.00016654097127282
 1070    0.00043451689385241
 1071    -0.00048901830904966
 1072    0.00052913624600035
 1073    -0.00016367475162378
 1074    0.0021212594661061
 1075    -0.0056484593539958
 1076    0.00015279019286892
 1077    0.00046025176862279
 1078    0.00032362673412199
 1079    0.0038142573245395
 1080    -0.014315234548905
 1081    -0.00042297756673411
 1082    0.00044238839564085
 1083    -1.1407401512596e-05
 1084    -0.0029906260006776
 1085    0.0098868038726255
 1086    0.00012799488292591
 1087    -0.00025739386631146
 1088    -0.00015323068334923
 1089    0.0025653247441307
 1090    -0.0030847810181387
 1091    -0.032367634026962
 1092    0.0035446154098082
 1093    0.0076447040788659
 1094    -0.0019948832047303
 1095    0.0034471294199226
 1096    0.0051468150735993
 1097    8.1087394378169e-05
 1098    0.00019502812488051
 1099    -0.00012364262369358
 1100    0.00021900519281809
 1101    -3.8661671131894e-05
 1102    -0.00029278724493469
 1103    0.0014951766635626
 1104    0.0036060304709748
 1105    0.0091818798058876
 1106    0.00083068825310166
 1107     0.010622224514844
 1108    -5.7033138652165e-05
 1109    0.0020963646946909
 1110    -0.011045408492673
 1111    0.0030335769432611
 1112    0.00021957324308367
 1113    1.8834638010297e-05
 1114    0.00023861238792428
 1115    -0.0001226041293459
 1116    -0.00035150119048437
 1117    0.0046431800294635
 1118    -0.019762420864539
 1119    -0.00025690391762529
 1120    0.00041456461209129
 1121    0.00049184268562777
 1122    0.0015040822236641
 1123      0.00260844901341
 1124    0.00034251490951289
 1125    0.00059530193342219
 1126    0.00010857357865771
 1127    -0.005942162411287
 1128      0.01006393168768
 1129    0.00032367214537052
 1130    0.00014242162699206
 1131    -0.00049405846029147
 1132    -0.0039990391168867
 1133     0.013462381569334
 1134    -0.00071645550031372
 1135    -0.00052940302079173
 1136    0.00047704521062905
 1137    0.0032363386479453
 1138    0.0099544991426785
 1139    0.00017970018935837
 1140    -1.7358485232304e-05
 1141    -0.00028656107889511
 1142    -0.00049083298784439
 1143    0.0088242399517763
 1144    0.00032586145330311
 1145    8.2319838174722e-05
 1146    -0.00013438663668504
 1147    0.00097909393805539
 1148    -0.002528863163342
 1149    -0.0075517804717383
 1150    0.0016026527633367
 1151    -0.0016526986765749
 1152    -0.0016661084453063
 1153    0.00018094892185753
 1154    -0.00038544332582338
 1155    0.00012591741192128
 1156    1.2949879018634e-07
 1157    0.00013281829307017
 1158    -0.00014193789886467
 1159    8.4381879543078e-06
 1160    0.00013598082837073
 1161    0.00023807033366485
 1162    0.0022558326918898
 1163     -0.01053530195832
 1164    0.0013797099860612
 1165    -0.001906054845795
 1166    -0.0010367205346352
 1167    0.0017719318347516
 1168    -0.0019207619766787
 1169    -0.0028962500042932
 1170    -6.0605832489563e-06
 1171    0.00020620478057917
 1172    -0.00024869738574295
 1173    2.7221302028119e-05
 1174    0.0002389879285538
 1175    0.0023252361947064
 1176    0.0051058885562214
 1177    0.00027407799097781
 1178    -0.00028549208065179
 1179    -4.9589858085444e-05
 1180    0.0024916964936033
 1181    0.0056955925992823
 1182    0.00026658707553839
 1183    -0.00034727885835198
 1184    -0.00034531106232753
 1185    0.0025099333354292
 1186    0.0066681626310238
 1187    0.00014884562667419
 1188    -0.00027949253304957
 1189    -0.00031196128808039
 1190    0.0001730358123699
 1191    0.0030374495830198
 1192    0.00011153353831282
 1193    4.7182453172308e-07
 1194    -1.7330667322123e-05
 1195    0.00014519907489304
 1196    0.0028102344050705
 1197    2.4366246476534e-05
 1198    -8.3613169549888e-06
 1199    -0.00011474214011253
 1200    0.00036270152146393
 1201    0.0027562927194925
 1202    -7.3246735652895e-06
 1203    -0.00011032341843547
 1204    -7.9829705529006e-06
 1205    0.0015806070082797
 1206    -0.0029338399578332
 1207    -0.014358934093419
 1208    0.0037601151363831
 1209    -0.00032933508256658
 1210    -0.0028920267039172
 1211    8.3183545722237e-05
 1212    0.0016561460539194
 1213    -0.0045104905781229
 1214    -0.00016331284765391
 1215    6.7813037370923e-05
 1216    9.0354988897478e-05
 1217    0.00016740514064003
 1218    -2.7387111283415e-05
 1219    0.0022043970783839
 1220    0.0050968896150995
 1221    0.0080438662709816
 1222    0.0046605329908707
 1223    -0.0023383780079521
 1224    -0.0013629677584206
 1225    -0.0032273095116666
 1226    0.0011679774498346
 1227    0.0013470179287701
 1228    -0.00019845758726646
 1229    6.2901961104758e-05
 1230    0.00014951302907785
 1231    0.00013661765073907
 1232    -7.0181960778998e-07
 1233    0.0026379784930942
 1234    -0.0085011234913039
 1235    0.00083070317597163
 1236    -0.00032434562197369
 1237    4.5870243106122e-05
 1238    5.0077078340727e-05
 1239    -0.0021109096827186
 1240    0.00010473325953932
 1241    -0.00033792622785674
 1242    -0.00053268041784164
 1243    -0.0026797986133383
 1244    3.5824335834772e-05
 1245    0.00014775773497072
 1246    -7.6930926925519e-06
 1247    0.00033648052124066
 1248    -0.0023795390749408
 1249    0.0076650559703271
 1250    -0.00017915955703096
 1251    -0.00025839034705396
 1252    0.0002623273566032
 1253    0.0026563731383316
 1254    0.0063429669356742
 1255    -0.00016095092215296
 1256    -3.5050180322932e-05
 1257    -0.00011478513851399
 1258    -0.00024275673685857
 1259    0.0049979849939278
 1260    0.00015880113677284
 1261    6.8011311118929e-06
 1262    1.742965944882e-05
 1263    -0.00013700532555193
 1264    0.00095734678245621
 1265    -0.0035504339545768
 1266    -0.0021436487524323
 1267    -0.00059821671164177
 1268    -0.00082800743970444
 1269    -0.0021338239640832
 1270    -0.0061572843087187
 1271    -0.0028634645230261
 1272    -3.5754605486022e-05
 1273    -0.00011651832068589
 1274    -0.00010737573919579
 1275    7.0325255455237e-05
 1276    0.0001326282491943
 1277    -0.00025207763660328
 1278    -0.00025202439957996
 1279    -0.0015341574713579
 1280    5.5176906725993e-05
 1281    0.0072986417519706
 1282    0.00028433738019701
 1283    0.0014883202647242
 1284    -0.0079169303888344
 1285    0.0014351966167636
 1286    7.1534751463244e-05
 1287    -0.0002342203769984
 1288    -2.0674164160276e-05
 1289    2.2867597705594e-05
 1290    -0.00014718714182844
 1291    -6.4839964278471e-06
 1292    0.0041591038165101
 1293    0.00012882080606979
 1294    0.00025332932357749
 1295    -1.4216034030809e-06
 1296    0.00088944890266416
 1297    -0.012177099434893
 1298    0.00042931428600768
 1299    0.00021972916192997
 1300    -0.00028456375373017
 1301    -0.0028820874482337
 1302     0.010808609432534
 1303    -0.00054743143006176
 1304    3.2528567360433e-05
 1305    0.00050637860601575
 1306    -0.0010135054498012
 1307    -0.0059652785318791
 1308    0.00023093004483518
 1309    -1.6655302825889e-05
 1310    -4.3041179732138e-05
 1311    -0.0013263179923809
 1312    0.0031511378313998
 1313    -3.8224407238144e-05
 1314     5.47394423113e-05
 1315    0.00014336019710086
 1316    0.0011137994589662
 1317    0.0054309074000107
 1318    -0.00018345755787684
 1319    -4.8360584300659e-05
 1320    0.00013144120441816
 Sym= A
 Ene=   -0.2361362437
 Spin= Alpha
 Occup=    2.00000
   1    -0.071904290066596
   2    -0.010794212460253
   3     0.099208559928145
   4      0.10399878459719
   5    -0.012575203159054
   6    -0.0010827853289646
   7    0.0009131961380606
   8    -0.012694723914219
   9    -0.001096984343286
  10    0.0009159388096994
  11     0.031969353008336
  12    0.0018510582732827
  13    0.00037351435875886
  14     0.014375863207444
  15    0.0071379389802111
  16    0.0021496970168766
  17     0.029203858117363
  18    -0.0036483868618328
  19    -0.00078037737895575
  20    -0.028109465753632
  21    -0.002836571399305
  22    -0.0087782960752776
  23    0.0016559099161706
  24    0.00077252452097898
  25     0.009404000193756
  26    0.00078376256814814
  27     0.012577855999689
  28     0.011937264612981
  29    -0.016561850570471
  30    -0.069413947777406
  31     0.048412901745849
  32    -0.0073492692967339
  33    -0.0036079702127849
  34     0.059513729212279
  35    -0.009021872202661
  36    -0.0044749313851798
  37     -0.13874481375528
  38     0.021844453424274
  39    0.0097925666203346
  40      -0.1920327002413
  41      0.02485789927103
  42     0.015884248723251
  43    0.0072693821206699
  44    -0.00016807909194352
  45    -7.8874305942392e-05
  46    -0.012816055541259
  47    0.00086095249845211
  48    -0.0072280331218142
  49     0.001020799555533
  50    -5.4905546825418e-05
  51     0.012870885621095
  52    -0.00038081898353626
  53    0.0042012183110581
  54    0.0040481604700585
  55    -0.0077426856413165
  56      -0.0160995857378
  57    0.0084656745833792
  58    -0.017349314681881
  59    -0.0054168926043483
  60     0.010385332798167
  61    -0.021364145028251
  62    -0.0066526558687241
  63     -0.02514589297626
  64      0.04948720669464
  65     0.015625238786608
  66    -0.026439541874571
  67     0.067932722806721
  68     0.019673979597141
  69    0.0023443444907882
  70    0.00014501880667729
  71    -0.0016080647779817
  72     0.001189081882928
  73    0.0016744799920053
  74    -0.0021585169685699
  75    -0.00012034951159383
  76    0.0017745430325549
  77    -0.0006175729790514
  78    -0.0020551420169102
  79    -0.00049670701017539
  80    -0.00019964344910466
  81    -0.0071024446387826
  82     0.027053116019242
  83    0.0090716253721154
  84    0.0025314764997234
  85    -0.041213858170089
  86     0.011184260085616
  87    0.0031535904441987
  88     -0.05077797174461
  89    -0.026337599583354
  90    -0.0068578506500776
  91      0.11802462381977
  92    -0.033109492941759
  93    -0.012295323884173
  94      0.17348834563735
  95    0.0044178015519044
  96    0.00070793491259967
  97    -0.00092703618133997
  98    -0.0010995764888635
  99    0.00016146039292253
 100    -0.0041879517668484
 101    -0.0019793482014619
 102    0.00056088654591031
 103    0.0015300427848752
 104    -5.8564016629729e-07
 105    0.00040184908494793
 106    0.00030419776234294
 107    0.0030150401593968
 108    -0.012408931560335
 109    0.0020448576260668
 110    0.00061951811349394
 111    -0.0026788022990591
 112    0.0025133544349631
 113    0.00076417859280086
 114    -0.0032883456723854
 115    -0.0054583566231225
 116    -0.0018304333964809
 117    0.0078252289353346
 118     -0.01718249125783
 119    -0.001806789799289
 120    0.0094617828905908
 121    0.00050943093856255
 122    0.00044723519724329
 123    -2.5963646905646e-05
 124    -0.00058540829039499
 125    3.2531861527356e-05
 126    0.00043770986867674
 127    -0.00019553306108469
 128    6.0750143461583e-05
 129    -0.00098391554158505
 130    7.3382996206302e-05
 131    0.0038406357407334
 132    0.0036334801070223
 133    -0.0058019981393734
 134    -0.015612404253379
 135    0.0031881635303465
 136     0.021880229054728
 137    -0.0056516708356195
 138    0.0038980270270194
 139     0.026899255980093
 140    -0.0069421063596529
 141    -0.0098638119442054
 142    -0.063318173121518
 143     0.016535689178695
 144    -0.008286919235716
 145    -0.080184507296445
 146     0.019207052057293
 147    0.0016113052959681
 148    5.0165852625292e-05
 149    0.00080322606992617
 150    0.0016346794590048
 151    -0.00075559494330733
 152    -0.0011451975557973
 153    -3.1645041296771e-05
 154    -0.00065084435050841
 155    -0.00054760558598722
 156    0.00097255722424204
 157    0.0042114874362645
 158    0.0038779234925401
 159    -0.0049108677829648
 160    -0.019837567965271
 161    0.0030121801123245
 162    -0.0034828219251667
 163     0.032042284143319
 164     0.003708485664142
 165    -0.0042744275329804
 166     0.039356449703645
 167    -0.0090024965226927
 168    0.0098522116553869
 169    -0.092737559364358
 170    -0.0094604995679044
 171     0.012973098917995
 172     -0.11305212330579
 173    -0.0019942616302213
 174    -0.0002832231549158
 175    0.0004240570331352
 176    -0.00047501892360017
 177    -0.00026972248573824
 178    0.00042081149854355
 179    -0.00012928125861881
 180    0.00014433577843561
 181    0.00054255380466835
 182    0.0006269091416597
 183      0.22789441839929
 184     0.034955961348931
 185     -0.31895616096934
 186     -0.32797199267912
 187    -0.0031530339008311
 188    0.0058787687664346
 189    -0.0012939906344389
 190    -0.0031473769422437
 191    0.0059503207192842
 192    -0.0013561305899772
 193     0.011288162456704
 194    -0.017625824636426
 195    -0.00031288959380546
 196    -0.010044499463886
 197     -0.01768711662971
 198     0.018455062466346
 199    -0.0040747102861099
 200    -0.0009537398693499
 201    -0.0029918917564877
 202    -0.010872716857623
 203    0.0015695708588638
 204    0.0016211011520315
 205    0.0014989551154295
 206    0.0009012376246897
 207    0.0042215336724464
 208    -0.00060452874825052
 209    0.0004545735332313
 210    0.00071766368797255
 211    -0.0084672609973198
 212     0.021420825035308
 213     0.048122963479768
 214    -0.00055972968370271
 215    -0.0092933211756684
 216      0.05925684374478
 217    -0.0007089332490791
 218    -0.011444677399772
 219     -0.13790960755536
 220    0.0012792659345859
 221     0.027106373056974
 222     -0.20140593025048
 223    0.0039483381019176
 224     0.033329472704892
 225    -0.0023003952853201
 226    0.00086489599367699
 227    0.00014778851236568
 228    0.0021880977917499
 229    0.00052044302525029
 230    0.0023830885827782
 231    -0.0024422660718129
 232    3.2214954865321e-05
 233    -0.001407257417042
 234    3.2044700651294e-05
 235    -0.0066597731335798
 236    -0.006297594288309
 237    0.0065947208550704
 238     0.044994185466883
 239     0.004063335000448
 240     0.023701079779041
 241    -0.0034445223811105
 242    0.0050198356344673
 243     0.029357893164936
 244    -0.0042386876185994
 245     -0.01164234336417
 246    -0.066491241145386
 247     0.010138936593687
 248    -0.016488024668952
 249     -0.11431655837585
 250     0.012881814351079
 251    -0.0042272911235105
 252    9.8696373402704e-05
 253    -0.0012552457205717
 254    -0.0074180562252833
 255    0.0015155530059393
 256    0.0043505688833727
 257    -0.00026308318839749
 258     0.001231890397722
 259    0.0077591292076257
 260    -0.0016564482769753
 261    -0.010805141502088
 262    -0.010154912242959
 263     0.012791555016449
 264     0.054914718166064
 265    0.0061976226258696
 266    0.0038833406190636
 267     0.041977897391335
 268    0.0076046858123269
 269    0.0047758633057298
 270     0.051726751857214
 271    -0.018643438592953
 272    -0.011361219762097
 273     -0.12054603832492
 274    -0.019575304284065
 275    -0.013189618006261
 276     -0.17199482669337
 277    0.0077317088412469
 278    0.0016151147233824
 279    0.0016105320407024
 280    -0.00041863411417108
 281    0.00037520338385135
 282    -0.0055732176533624
 283    -0.0017091008240689
 284    -0.0023240703513266
 285    0.00067787331281008
 286    -0.00064936000154539
 287    -0.011090392986319
 288    -0.010441935465693
 289     0.013714349478805
 290      0.05547103175221
 291    -0.041704332130912
 292    0.0033698431208492
 293    -0.0060673792391583
 294    -0.051420897241237
 295    0.0041455746694479
 296    -0.0074495733221656
 297      0.11952618326757
 298    -0.0099251933496512
 299     0.018135733577708
 300      0.17177801998384
 301    -0.011127691584859
 302     0.019549010396296
 303    -0.0042554311126055
 304    0.0018533177736052
 305    -0.00021738413083955
 306    0.0066818008554832
 307    -0.001423277097058
 308     0.003631612444051
 309    -0.0021850644169367
 310    0.00045118979485153
 311    -0.0051583807164415
 312    0.0020965933323491
 313    -0.0075864598676747
 314    -0.0070128405356358
 315    0.0061478803167361
 316      0.04682758544192
 317     0.008662763003474
 318    -0.037253665162764
 319    -0.0090165781887907
 320     0.010699212196206
 321    -0.045831844893155
 322    -0.011110399951934
 323    -0.024488363923722
 324      0.10741483683403
 325     0.025828365362676
 326    -0.034779372875261
 327       0.1496226769924
 328      0.03460902565247
 329    -0.0023573186966657
 330    -0.00071996219442181
 331    0.0021861759997171
 332    -0.0044905525475373
 333    -0.0019760814772318
 334    0.00070414987914316
 335    0.0012078878079151
 336    -0.0017986565393072
 337    0.0016911085828186
 338    0.0013061855538778
 339     -0.30385494878841
 340     -0.04586869185158
 341       0.4285312193201
 342      0.40296305665537
 343    -0.0050453860998133
 344    0.0083633659734342
 345    -0.0017320472057856
 346    -0.0051344440861772
 347    0.0084784794855625
 348    -0.0017307966558783
 349     0.010527480871747
 350    -0.022092818474127
 351    0.0074706150487714
 352    0.0019424072103459
 353    -0.00086270030716102
 354    0.0083451787392421
 355    -0.010254569570673
 356    -1.9588099050898e-05
 357    0.0015414221669184
 358    -0.007816535229367
 359    -0.0013381036400307
 360    0.0043908896812303
 361    -0.00098324227635982
 362    -0.00045358270474521
 363    0.0022150356348977
 364    -9.4031185797581e-05
 365     0.010270454032469
 366    0.0096411269112428
 367    -0.012869093685963
 368    -0.050596964921636
 369    -0.054133805256644
 370    0.0071053446397737
 371    -0.0030496425552949
 372    -0.066678935895254
 373    0.0087420174451758
 374    -0.0037806296869832
 375      0.15486078358059
 376    -0.020649074167355
 377    0.0083735240481231
 378        0.210473584726
 379    -0.024226642105257
 380     0.013654615416929
 381    0.0035362367892752
 382    -0.00060870266042197
 383    0.00013442958161996
 384    -0.0059337916297183
 385    0.0023331214784721
 386    -0.0027311662576791
 387    0.00075783101960304
 388    -0.00031540859320665
 389    0.0039285456688692
 390    -0.0031538435670269
 391     0.013430973074097
 392     0.012685450510398
 393    -0.017840978254022
 394    -0.067140410776897
 395    0.0014084941581835
 396    -0.061327608848149
 397    -0.00074230677371224
 398    0.0017474823989928
 399    -0.075459585715291
 400    -0.00093494971196424
 401    -0.0038740233644112
 402      0.17615087705665
 403    0.0017855405534841
 404    -0.0052536588453528
 405      0.24201182046056
 406    0.0040179557176361
 407    0.0040981713330083
 408    -3.413737241488e-06
 409    -0.0010244118633102
 410    0.0071770304468103
 411    0.0012785560584872
 412    -0.0023196937514535
 413    -0.00036187387966374
 414    0.0020029664436732
 415    -0.0040431947424805
 416    -0.0024932938527595
 417     0.016566520710569
 418      0.01592576805492
 419      -0.0256290003047
 420    -0.082333037465508
 421    0.0080801538972446
 422    -0.0024306815923052
 423    -0.037380968541835
 424     0.010033216902183
 425    -0.0029805644839514
 426    -0.045965641167191
 427    -0.021840300262732
 428    0.0074232230092063
 429      0.10729187163115
 430    -0.037194179153091
 431    0.0069899759008929
 432      0.15107421209573
 433    -0.019587171713774
 434     0.001175777378253
 435    4.1461872917289e-05
 436    0.00021192911067263
 437    0.00024230184849216
 438     0.021010308004944
 439    -0.00078294904687918
 440    -0.00015725655044455
 441    -6.4875035023382e-05
 442    -0.00046086515519896
 443     0.010039754143674
 444    0.0093974179300264
 445    -0.011826606814724
 446    -0.052067126914371
 447    0.0050817963063623
 448      0.05650687957601
 449    -0.0009566374614531
 450    0.0062480967596848
 451     0.069578670466528
 452    -0.0011644262737563
 453     -0.01489365817199
 454     -0.16208859361002
 455    0.0030643381135382
 456    -0.018707485036084
 457     -0.21732829118886
 458    0.0029141492996961
 459    0.0039406734976471
 460    -7.7832405777775e-05
 461    -0.00060094859367852
 462    0.0070266009636642
 463    -0.00046540495250544
 464    -0.0031996126835054
 465    0.00060746775336912
 466    0.0012589553013121
 467    -0.005948097685029
 468    -0.00021682756785658
 469    0.0095933109810688
 470    0.0089596282064926
 471    -0.010610471292544
 472    -0.050471649562948
 473    0.0029482575894708
 474    0.0039579121133014
 475      0.05194209110127
 476    0.0036534022639173
 477    0.0048803163077219
 478     0.063968386766632
 479    -0.0082035027086826
 480    -0.011356251926976
 481     -0.14851046037362
 482    -0.012561434646841
 483    -0.013798495631561
 484     -0.20360548975828
 485    -0.0068746974960227
 486    -0.0006388700724693
 487    -0.001502360456059
 488    -1.1427756433323e-05
 489    -6.2597733363732e-05
 490    0.0043408827392097
 491    0.00094981183534436
 492    0.0022721902476921
 493    -0.00012507038673874
 494    0.00035268692910291
 495     -0.10822868915404
 496    -0.016325788533574
 497       0.1523173982587
 498      0.14576091365687
 499    -0.0024740150003404
 500    -0.0012146357413648
 501     0.015758655110432
 502    -0.0024928746981738
 503    -0.0012382919340896
 504     0.015910149132241
 505    0.0027730319542402
 506    0.0019418559897458
 507    -0.041331446944186
 508    -0.0022758053884998
 509    0.0073021171060628
 510    -0.016108000382445
 511     -0.04412255540553
 512    -0.0016785025762029
 513    -0.00070228591587291
 514     0.011018678484533
 515    0.00059416907771284
 516     0.014227024656418
 517    0.0010197386269167
 518    0.0007272408748704
 519    -0.0029455233292799
 520    -0.00090974767086342
 521     0.004898919558378
 522    0.0045602491166751
 523    -0.0067160226948346
 524    -0.021449352364984
 525    -0.038037053742823
 526    -0.0057743869581343
 527    -0.00047984737947741
 528    -0.046720879745039
 529    -0.0071018065686679
 530    -0.00057663081014671
 531      0.11011013645053
 532      0.01629907743632
 533    0.0018054560183818
 534       0.1342826199335
 535     0.021908700518693
 536    -4.7754547860751e-05
 537    0.00098114921969155
 538    0.00026460688313538
 539    0.00021143534793603
 540    -0.0024109568866304
 541    -0.00074208430738046
 542    2.3002439985844e-05
 543    -0.0010082045615622
 544    -0.00074844267350865
 545    0.00075448964180101
 546    0.00010075137267508
 547    0.0049276547538446
 548    0.0047685184074914
 549    -0.0093386311869485
 550    -0.019330455067731
 551     0.004893018843207
 552    -0.022696828056322
 553    -0.0051646695907354
 554    0.0060126804108894
 555    -0.027935218000188
 556    -0.0063338054899795
 557    -0.014067187657204
 558     0.065025881258764
 559     0.015434415192453
 560    -0.017958239530551
 561     0.088185403807509
 562     0.015655574701211
 563    0.00062244921367956
 564    1.4534218186002e-05
 565    -0.0010114112389787
 566    0.0033925610615684
 567    0.0015858851397999
 568    -0.00019837872637469
 569    1.1224974924954e-05
 570    0.0012179357312032
 571    -0.0027338543812835
 572    -0.0018844891354663
 573    0.00091681601204803
 574    0.00075304631615397
 575    0.0030261907530102
 576    -0.016244516669845
 577    0.0033775426015539
 578    -0.0011069930520818
 579    -0.0053578371005325
 580    0.0041556072249899
 581    -0.0013583984664496
 582    -0.0065926515481744
 583    -0.0096915566955233
 584    0.0031900834736968
 585      0.01482558578663
 586    -0.012830770849602
 587    0.0046018673671281
 588     0.029876087926471
 589    -0.0011142154851228
 590     0.000878451249602
 591    -0.00020201964296684
 592    4.9552076895192e-05
 593    4.2303833327747e-06
 594    -0.00077720693006373
 595    -0.00059532844104188
 596    -0.00016255401646897
 597    1.8858858102147e-05
 598    5.2831712882417e-06
 599    0.0058122975707094
 600    0.0054772059969406
 601    -0.0081533075654855
 602    -0.025172420460473
 603    0.0021378511357377
 604     0.028476714873038
 605    -0.006307425998772
 606    0.0026068758905368
 607      0.03500806465173
 608    -0.0077542053485748
 609    -0.0065542554525566
 610    -0.082182235749284
 611     0.018375733028017
 612    -0.005178397450785
 613     -0.10592810919398
 614     0.021833476165829
 615    0.00076277827579084
 616    0.00015620371816635
 617    0.0011335078891156
 618     0.002809373562416
 619    -0.0008743902529482
 620    0.00019648565933832
 621    -0.00031863847436847
 622    -0.0011846614834464
 623    -0.0017072736773034
 624    0.0013972708817048
 625    -0.00044823054349978
 626    0.0025896425242211
 627    -0.0025800830699145
 628    0.00010873898932817
 629    0.0037793052954512
 630    0.0058385535664356
 631    -0.0025520141706439
 632    0.0021568664564352
 633    0.0059160420242342
 634    0.00015476745417259
 635    0.00023234441934616
 636    0.00034206226913628
 637    -0.00012803064578045
 638    0.00013583006479041
 639    -0.0018238364703118
 640    -0.0052485597701654
 641    0.00067628830413294
 642    0.0047699593152426
 643    0.0037644162419405
 644      0.00350611951841
 645    -0.0022034020296818
 646    0.00030753921756152
 647    0.0036776294974239
 648    5.4841374977512e-05
 649    0.00036738258503777
 650    0.0003706646946754
 651    3.1311395869252e-05
 652    0.00025672771872431
 653    -0.0038377333044751
 654    -0.0050280232254172
 655    -0.00020236877672711
 656    0.00018439352346424
 657    0.00048273195185097
 658    -0.0027318406626071
 659    -0.0016732023032901
 660    0.00068982817853909
 661    8.6861544382792e-05
 662    0.00061715506365835
 663     -0.00264750726889
 664    0.0029903685725238
 665    0.0002410262633928
 666    0.00066572065843395
 667    0.00041049580644486
 668    -0.00068735317054828
 669    -0.0022890842092321
 670    -2.6634858206642e-05
 671    -2.9219887452228e-05
 672    0.0001988192564216
 673    -0.0010621899414184
 674    0.0058152065576167
 675    0.00036106361221614
 676    -6.4055216249453e-05
 677    -1.0568054804397e-05
 678    -0.00028537688643342
 679    -1.2012581285345e-05
 680    -2.0665676036048e-05
 681    0.00021603270599058
 682    6.8611999719792e-05
 683    -0.0012372496269586
 684    0.0011051490828883
 685     0.017042754349045
 686    -4.8547642210045e-05
 687    -0.002400352764017
 688    0.0053037057518319
 689    0.0031198276835488
 690    -0.0046437512186493
 691    0.0085259127537439
 692    0.00014997674689126
 693    5.6316779160546e-05
 694    -7.0442956525713e-05
 695    -9.7784665449352e-05
 696    0.00011076694878661
 697    -0.0022057104325477
 698    -0.0039789838722363
 699    -0.018446106484459
 700    0.0026686966386099
 701    -0.0034245819128529
 702    -0.002039998052167
 703    -0.0026793896328681
 704    0.0038120587043831
 705    0.0087459400341193
 706    6.7684385260122e-05
 707    -0.0001817822710417
 708    -0.00012819632271958
 709    -6.3803475334085e-05
 710    5.1867974565308e-05
 711    -0.00069367243399684
 712     0.010178996765131
 713    0.00022253239918514
 714    -0.00055581241366013
 715    0.00074584809345563
 716    0.0048610138142485
 717     0.013584379779045
 718    0.00011050258371208
 719    -0.00013491587533066
 720    9.5271727842487e-05
 721    -0.0015342179272404
 722    -0.0049089528690531
 723    -0.00015397287859852
 724    0.00010349595730798
 725    0.00012889643691674
 726    -0.00022067562478611
 727    -0.0013680923999563
 728    -0.00020068816963305
 729    -8.4113763047454e-05
 730    -6.3462636813279e-05
 731    -0.00083446810632574
 732    -0.001458104764213
 733    -4.3965816264176e-05
 734    -8.6753193297666e-05
 735    5.617440816228e-05
 736    0.00074688425858604
 737    -0.012848847222576
 738    0.00033860759081456
 739    0.0003352064279416
 740    -0.00027459076834126
 741    -0.0015287601466758
 742    0.0044839284123449
 743     0.010110003123578
 744    0.0027760533715089
 745    -0.003590120413106
 746    -0.0027986956912577
 747    0.00039864754594608
 748    -0.00082816442278539
 749    -0.00077446839986046
 750    -8.5031766324442e-05
 751    -4.9764918919395e-05
 752    0.00024608913290804
 753    -0.00018171895543227
 754    -0.00019551178369768
 755    -0.0020649069258416
 756    -0.0062345450244535
 757    0.0015309663730745
 758    0.0042513486583605
 759    -0.0023553135508536
 760    -0.0037244169095593
 761    -0.00054691996833904
 762    -0.005043740384283
 763    -6.3639307253688e-05
 764    -5.9427677917605e-05
 765    -0.00025686654752344
 766    0.0003418865717263
 767    -0.00010070359179309
 768    -0.00033751268338106
 769     -0.00288578534059
 770    -0.0038723997485795
 771    -5.8563489132099e-05
 772    -0.00064499481401122
 773    -0.00036763070036467
 774    -0.0021612989004802
 775    0.0024368985054122
 776    0.00081178495324708
 777    -0.00022557909166466
 778    -0.00086300133093266
 779    -0.0029990294091289
 780    -0.0028400649092552
 781    0.00053582011345436
 782    -0.00072984390424367
 783    8.6033735126024e-07
 784    -0.00020526055346558
 785    -0.0044352378800943
 786    3.4729067351192e-05
 787    -3.6497526685397e-05
 788    -0.00021485496449677
 789    0.00016072124705479
 790    -0.0039960389537283
 791    0.00019599000695625
 792    -5.5078872699698e-05
 793    -4.4373567068856e-05
 794    -0.0013320906405191
 795    -0.0042228105870946
 796    7.0251846761299e-06
 797    -0.00025410311583702
 798    2.1397810708279e-05
 799    0.0017178109827905
 800    -0.0035579886523047
 801    -0.015937585881894
 802    -0.0036303757788539
 803    -0.0032557653096323
 804    -0.0028220299556959
 805    -0.0022764372832564
 806    0.00058537578690355
 807    0.0022846368809217
 808    0.00030849735826206
 809    -8.4585099954612e-06
 810    1.743927210317e-05
 811    0.00030262918609386
 812    0.00016864838527729
 813    0.0039592630569125
 814    0.0090355009293177
 815     0.014699345013259
 816    -0.0026389934411705
 817    -0.0048661755824153
 818    -0.0082446993527216
 819    -0.00028216070749445
 820    0.0018772443296463
 821    0.0048474098530605
 822    0.00032373235224394
 823    -0.00018611695749517
 824    -0.00023377364071382
 825    7.9314024385004e-05
 826    -0.0001041069613126
 827    -0.0027634666316739
 828    -0.003224575283318
 829    0.00082081522977462
 830    -0.000166476230854
 831    6.6288581244614e-05
 832    0.0047508671116801
 833    -0.012168970719611
 834    -0.0006355314059127
 835    -0.00054966796464132
 836    -0.0013562377444839
 837    0.00073802771837753
 838    -0.001431953628228
 839    -0.0010988943694086
 840    -0.00046160451760435
 841    -0.00057372276429372
 842    0.0015045684594914
 843      0.00310525858659
 844    1.9862873168942e-05
 845    -0.00024958464010172
 846    -0.0002729849784867
 847    -0.0023751047833477
 848    0.0092258328475761
 849    -9.7299421622144e-06
 850    -0.00012711235061349
 851    2.4008924753428e-05
 852    0.0025063855229529
 853    0.0096270182725462
 854    -0.0001264141451767
 855    -9.4034966473524e-05
 856    0.00029467736385526
 857    0.00033257066563509
 858     0.001320493054265
 859    -0.013041450768892
 860    -0.0034464566523431
 861    0.00036050111742023
 862    0.0058690840963244
 863    -0.0042317030112944
 864    -0.009808388703644
 865    0.00050437112111378
 866    -0.00023530953981394
 867    0.00042871866598338
 868    -0.00020677504175329
 869    -0.00027339613903303
 870    3.7235737995681e-05
 871    0.0019899158734558
 872    0.0026923432175289
 873     0.024525537108257
 874    -0.0066625140405882
 875    -0.0017316985681438
 876    0.0070904730095833
 877    0.0090483533956478
 878    0.0037932530947731
 879    -0.0045004280419264
 880    -0.00019672210700534
 881    4.7212368794913e-05
 882    -4.4890649859305e-05
 883    -0.00016138083446428
 884    3.0448880451561e-05
 885    0.00041900378744476
 886    -0.0056496342797923
 887    0.00043393190297088
 888    -0.00023631262174218
 889    0.00014585704523029
 890    -0.004141195444727
 891    0.0042177836928325
 892    -0.00087763527010016
 893    0.00077692814241943
 894    0.00077540870746069
 895    0.0016173653260711
 896    -0.021507160921463
 897    -0.00037949330680118
 898    -0.00013986485210733
 899    0.0001691536297088
 900    0.00071612180401855
 901    -0.0032394194531706
 902    -1.9246419550916e-05
 903    5.8878308548876e-05
 904    2.1640900452832e-06
 905    0.0034034252543534
 906    0.0077232761746767
 907    -0.00032045082495484
 908    4.6826888479584e-05
 909    -7.4878394086601e-05
 910    -0.004573313288011
 911    0.0013050201327211
 912    0.00035421094020232
 913    -0.00039882944006081
 914    -0.00037800490554573
 915    0.00016905215475001
 916    -0.0021625011298796
 917    0.0071310134015894
 918    -0.0010267903182691
 919    -0.00064380490418501
 920    0.00066447894134754
 921    -0.0065721673798796
 922    0.0012106379793503
 923    -0.0047106699575999
 924    -0.00010809114647043
 925    0.0002499090392023
 926    0.00014436272194759
 927    0.00014543653882944
 928    -0.00020453390651157
 929    -0.0020548611035784
 930    -0.0029128725777368
 931    -0.020360693708624
 932    -0.0042989104641324
 933    0.0023212017639392
 934    -0.0046445219910772
 935    0.0014375312066617
 936    -0.0038202879157842
 937     0.010946215738729
 938    -4.9985764130421e-05
 939    0.00023024303694844
 940    9.3452622138644e-05
 941    -2.9596703092548e-05
 942    -0.00023093480778639
 943    0.0028652723062801
 944     0.014876502870181
 945    -0.0010468413952088
 946    0.00063119680190585
 947    -0.00024187722248843
 948    0.0019223890765814
 949      0.00243363926396
 950    0.00010188898105729
 951    -0.00016364572815784
 952    -7.7262271357319e-05
 953    0.0044762327067729
 954    0.0085886963053606
 955    -1.4045037525986e-05
 956    -0.00011552225360443
 957    0.00032940361077258
 958    -0.00090569723307756
 959    -0.0057248381316683
 960    -0.00016566477431256
 961    1.8957250641236e-05
 962    -0.00022227758985517
 963    0.00085294105454266
 964    0.0037804718810119
 965    7.4048675871845e-05
 966    0.00014865058961399
 967    -0.00011287792076033
 968    -0.0010357097851508
 969    -0.0076054941499647
 970    -0.00022944627989837
 971    -1.6424924653147e-05
 972    8.5536049887442e-05
 973    0.00044398143860591
 974    0.00059251049745483
 975    -0.013033829025932
 976    0.0036292850089047
 977    -0.000959124164114
 978    0.0026990316403878
 979    0.0063821488781552
 980    -0.0064399534734773
 981    -0.0023315681060469
 982    -7.3861827275664e-05
 983    -0.00023881438001574
 984    -8.5488907462559e-05
 985    -3.2059201124197e-05
 986    -3.2592487373601e-05
 987    0.00096135443481192
 988    0.0025727743402209
 989     0.005464739493209
 990    0.0036147260884342
 991    0.0053006283949904
 992    0.0012007051537877
 993    -0.0063118085132056
 994    -0.0026285826644815
 995    -0.0076532334310996
 996    -5.0682861926532e-05
 997    -0.00023377539644987
 998    3.6724279519769e-05
 999     -8.4871116891e-05
 1000    5.6685214722518e-05
 1001    0.0042606409125763
 1002    -0.0088178874823626
 1003    0.00040733793661488
 1004    0.00027240165832733
 1005    -0.00010374280754696
 1006    0.0003689286607214
 1007     0.010721042715081
 1008    -8.7873539326897e-05
 1009    0.00054307392660603
 1010    -2.903627452293e-05
 1011    -0.0024456021128274
 1012    -0.00032443582256589
 1013    -0.00020783387232142
 1014    0.00014909287606994
 1015    0.00016823355273103
 1016    0.0017321822007576
 1017    -0.0062081975701636
 1018    5.2778794653099e-05
 1019    1.1846847839025e-05
 1020    -0.00071487414744951
 1021    0.00072070548850915
 1022    0.0068300180457887
 1023    3.1677845012932e-06
 1024    -2.6257723633247e-05
 1025    0.00041570771057083
 1026    -0.003760849923772
 1027    0.0062098337740657
 1028    -0.00032041177868358
 1029    -0.00015901397325731
 1030    0.00011733049507624
 1031    -0.0012705831604723
 1032    0.0036670410070018
 1033    0.0058901189430957
 1034    0.0012186226752148
 1035    -0.013629207974663
 1036    0.00050269444693629
 1037    0.0033829076565216
 1038    -0.012164057704801
 1039    0.00035156909220174
 1040    0.00022555945908676
 1041    0.0002839731455849
 1042    -0.00021649486732354
 1043    0.00039426179426935
 1044    -0.00034070712102017
 1045    -0.00049524634514135
 1046    -0.0015155343455168
 1047    0.00036912879721712
 1048    -8.2953603502219e-05
 1049    -0.0051377673429826
 1050    0.00045917395771461
 1051    -0.00098207160815755
 1052    0.0022537665728517
 1053    -2.3270667451467e-05
 1054    -4.8287264211615e-05
 1055    -7.4323888886637e-05
 1056    0.00011496281445841
 1057    5.5137847535423e-05
 1058    -0.00028261731495156
 1059    0.0029692580449024
 1060    0.00048344451915907
 1061    0.00030925690231638
 1062    0.00010795388088521
 1063    -0.00019171649537535
 1064    -0.0028210290056244
 1065    0.00051937322488291
 1066    -0.00065812302730715
 1067    -0.00071759829319723
 1068    0.00077599174864946
 1069    0.00031476517262551
 1070    0.0014371003103382
 1071    1.6014342964795e-05
 1072    0.00030916260704201
 1073    -3.9666727417863e-05
 1074     0.002962230397683
 1075    -0.0050515015202229
 1076    -0.00028948143638953
 1077    0.00018148752365796
 1078    0.00034770378065007
 1079    0.0069267942763165
 1080    -0.015169475406283
 1081    -0.00065662779976369
 1082    0.00051146546617203
 1083    0.00045493793871029
 1084    -0.0088184866441922
 1085    0.0078696238251225
 1086    0.00063078452643758
 1087    3.0679769901869e-05
 1088    -0.00041857254649017
 1089    -0.0014628096482128
 1090    0.0017721854590799
 1091     0.017824132234441
 1092    -0.0054885714571969
 1093    -0.0040333735385429
 1094    -0.00047569696201561
 1095    -0.0069825421257966
 1096    -0.0062356446146544
 1097    -0.0034638523793489
 1098    -8.745870999858e-05
 1099    -3.4231935520391e-05
 1100    1.1436590557442e-05
 1101    -5.6809516960526e-05
 1102    0.00011132449914362
 1103    -0.001757069047213
 1104    -0.0034351280851987
 1105    -0.013927300241198
 1106    -0.000329877426164
 1107    -0.00046874087392353
 1108    -0.00043867923014977
 1109    -0.0036629497444768
 1110    -0.0046246404283828
 1111    -0.0021198300863507
 1112    -5.5916333901508e-05
 1113    -0.00013325173992766
 1114    -0.00011245376430801
 1115    4.8685518562824e-05
 1116    0.00027144253003395
 1117    -0.003297351305852
 1118    0.00021507500024956
 1119    -0.00040943441382698
 1120    -0.00018739864065135
 1121    3.5611193887083e-05
 1122    -0.002514372096672
 1123    0.0012905480544181
 1124    -0.00033027322256219
 1125    -0.00051198228474021
 1126    -0.00023530773899909
 1127    0.0052182768255322
 1128     0.011997552404814
 1129    -6.2722434154191e-05
 1130    -0.00031153242179972
 1131    -5.9218506525083e-05
 1132    0.0010438368871936
 1133    -0.012151783268133
 1134    0.00044155017794382
 1135    0.00042935064192189
 1136    -0.00036072648587827
 1137    0.00035090787809158
 1138    -0.0036673294835716
 1139    -9.2339278572678e-05
 1140    -7.2158240069753e-05
 1141    0.00011806316177161
 1142    -0.0014646917854595
 1143    -0.00062408141896738
 1144    -4.7169506978033e-06
 1145    -0.00014629035685477
 1146    0.00013528213902806
 1147    0.0026021002153965
 1148    -0.0069713947467633
 1149    -0.016433231709109
 1150    0.0048370359197447
 1151    -0.0051685160826487
 1152    -0.0049930821579233
 1153    0.0012712064658087
 1154    -0.00074992803699538
 1155    -0.0010456338004284
 1156    1.7124091666057e-05
 1157    0.00030102562100697
 1158    -0.00036275645507196
 1159    4.5240349885501e-05
 1160    0.00035634621800467
 1161    0.0029275489191564
 1162    0.0097707035576815
 1163    -0.010354162586154
 1164    0.0052723011007071
 1165    -0.0057958612456077
 1166    -0.0052428274746075
 1167    0.0017060125948084
 1168    -0.0027658338320444
 1169    -0.002584878830868
 1170    1.1978339293661e-05
 1171    0.00052833359590666
 1172    -0.00058379361782291
 1173    6.8279780387771e-05
 1174    0.00055464737786371
 1175    0.0044306809552384
 1176    0.0073028220628297
 1177    0.00094844411668155
 1178    -0.0011758478996918
 1179    -0.00014075569592092
 1180    0.0040365810717941
 1181    0.0079047992498544
 1182    0.0011303712230592
 1183    -0.00043566849045486
 1184    -0.0011601974952506
 1185    0.0045070794130536
 1186    0.0087279925806697
 1187    0.00017509502745311
 1188    -0.0011696371054112
 1189    -0.0010359809075066
 1190    0.00067515992639068
 1191    0.0072002273755616
 1192    0.0003274013878712
 1193    -5.1143677211776e-05
 1194    -3.7208656881543e-05
 1195    0.00063723159781914
 1196    0.0069744080998552
 1197    4.7094656548957e-05
 1198    -4.6652897992687e-05
 1199    -0.00033108057061025
 1200     0.001013489361442
 1201    0.0059812322055448
 1202    3.9432972489211e-05
 1203    -0.00033325660082158
 1204    -6.1485914898508e-05
 1205    0.0017693262607707
 1206    -0.0040094206081346
 1207     -0.01537776512273
 1208    0.0027900049452579
 1209    -0.0043037734424968
 1210    0.0024701814937478
 1211    -0.0028247748544342
 1212    -0.0011358504671985
 1213    -0.00012642687778533
 1214    0.00010020514238713
 1215    -1.2945077958112e-06
 1216    3.3092803064682e-05
 1217    0.00040272869002023
 1218    3.9620659942662e-05
 1219     0.003962772269318
 1220    0.0092376861321412
 1221     0.013603880065169
 1222    0.0089350378902193
 1223    -0.0052139360853727
 1224    0.0012703062831801
 1225    -0.0050554649122223
 1226    0.0014092638631164
 1227    0.0025742612981877
 1228    -9.3357713514978e-05
 1229    -0.00014705587769745
 1230    0.00022953277048585
 1231    0.00032713696014818
 1232    0.00032478593726509
 1233    0.0053043274373419
 1234     -0.01246344909235
 1235    0.0014829821683314
 1236    -0.00062944278042627
 1237    0.00070696117176723
 1238    -0.0012461638912064
 1239    -0.0042239495073617
 1240    8.2384430517194e-05
 1241    -0.00041525271002676
 1242    -0.00096545052242027
 1243    0.00033946424965753
 1244    0.0011965113907944
 1245    0.00056670594525141
 1246    -0.00034563175878031
 1247    0.0010028932340516
 1248    0.00075424672065863
 1249    0.0036366207261405
 1250    0.00023213505252219
 1251    -0.00033177397158281
 1252    5.1056248753757e-05
 1253    0.0023168152888387
 1254     0.010515649842273
 1255    -0.0003299584117115
 1256    -0.00011575214693785
 1257    6.1122779307146e-05
 1258    -0.0012034239535831
 1259    0.0067623934791395
 1260    0.0001384309972549
 1261    -7.7048276156977e-05
 1262    0.00015025227496699
 1263    0.00013320171721904
 1264    0.00072366354172517
 1265    -0.0081151312004671
 1266    -0.0029846305029072
 1267    -0.0032841124230545
 1268     -0.00527967101537
 1269    -0.0010392437078867
 1270    -0.012249139844922
 1271    -0.0081189657218397
 1272    1.0433519923237e-05
 1273    -0.00019773935991708
 1274    -7.2610917888898e-05
 1275    -0.00018300281455524
 1276    0.0001737363119363
 1277    0.0014793532553026
 1278    0.0032754903524912
 1279    0.0096397917969867
 1280    0.0007349147590153
 1281    0.0075439022273849
 1282    -0.0035748753648353
 1283    0.0053030120575234
 1284    -0.0045701101553128
 1285    0.0061302646307525
 1286     0.000103377918102
 1287    -0.00014214952996586
 1288    -4.3244837991702e-05
 1289    -0.00017589699038543
 1290    -0.00019107452934833
 1291    0.00077454098971601
 1292    0.0068106390678156
 1293    0.00024332624819269
 1294    0.00055648020188093
 1295    0.00018430363052128
 1296    0.0034546272498133
 1297    -0.015570042202917
 1298    0.0004160568150816
 1299    0.00056531776087191
 1300    -0.00053059158334538
 1301    -0.0034012402256977
 1302    0.0023455879018612
 1303    -0.00031099457195646
 1304    0.00010286239269502
 1305    0.00039072907362236
 1306    0.0018581810142462
 1307    -0.013492449818703
 1308    0.00084018522310423
 1309    0.00014645782629231
 1310    1.2711804940228e-05
 1311    -0.0046157659408415
 1312    0.0077476895987999
 1313    -0.00012462965170564
 1314    -0.00015385099394777
 1315    0.00023170038086261
 1316    0.0016949565895275
 1317     0.010012379608732
 1318    -0.00043787984290013
 1319    -0.00014005755328389
 1320    0.00011197740778971
 Sym= A
 Ene=   -0.2197156707
 Spin= Alpha
 Occup=    2.00000
   1     -0.30910599116789
   2    -0.046864381691393
   3      0.43072581800067
   4      0.43684829388418
   5    -0.018801931669891
   6    -0.0029502702700071
   7    -0.011160488864806
   8    -0.019085422327016
   9    -0.0029933354621361
  10    -0.011308244292928
  11     0.049518906368569
  12      0.00457040729059
  13     0.033158725807995
  14     0.041337214556302
  15     0.020888783941432
  16     0.029580417270054
  17    -0.004191618569505
  18    -0.0086412311790839
  19    -0.0048177390350962
  20    -0.0064206967652299
  21    -0.0043170750995423
  22    0.0017184483727513
  23    0.0045939742423836
  24    0.0019083643876023
  25     0.002648683942085
  26    0.00085650679958957
  27     0.011587289119718
  28     0.011189718447022
  29     -0.01852399830207
  30    -0.059541557986497
  31     -0.03345971227064
  32    -0.0035280141234526
  33    -0.0050726833491006
  34    -0.041191084104805
  35    -0.0043700416584006
  36    -0.0062355976061597
  37     0.096383659353688
  38    0.0098259404772744
  39      0.01521668903583
  40      0.13818389241109
  41     0.015658829481611
  42     0.016936663697993
  43    0.0076205924909262
  44     0.002507681750657
  45    -0.00028821036276491
  46    -0.013243057485427
  47    -0.00062404562927024
  48    -0.0093768375083656
  49    -0.0031503613402092
  50    0.00017909666635127
  51     0.015986000388918
  52    0.00062118697863022
  53     0.012737630520295
  54     0.012173349574623
  55    -0.019282890493766
  56    -0.062905384527561
  57    -0.0030721098512447
  58    -0.051344908291591
  59    -0.0039687873032029
  60    -0.003829792104699
  61    -0.063303843446689
  62    -0.0048575683275968
  63    0.0077197090186573
  64      0.14582674544479
  65     0.011595610627788
  66     0.017382633592595
  67      0.21525637882665
  68     0.014766406094021
  69    0.0049850481879356
  70    -0.00047145612610944
  71    -0.0019534624993746
  72     0.008245468790246
  73    -0.0011034476713506
  74    -0.0039175328856308
  75    0.00049416172106313
  76    0.0023348638392177
  77    -0.0065087924083839
  78    0.00092973153032386
  79     0.011436546912749
  80     0.011155389224609
  81     -0.02046217153633
  82    -0.055409668225759
  83    -0.0021799195261156
  84    -0.0049813705662912
  85    -0.041916408070631
  86    -0.0026401415413107
  87    -0.0061478713840242
  88    -0.051710701712274
  89    0.0071660610063969
  90     0.014167254974175
  91      0.11988789596153
  92    0.0041335124073918
  93     0.020821216394036
  94      0.18188906659088
  95    -0.014791589456071
  96    0.0030935148368047
  97    -0.0014184023345927
  98    0.00013132793552887
  99    0.00020203540199315
 100     0.017105320567034
 101    -0.0044581366866269
 102    0.0015401711282318
 103    -0.00038264721514672
 104    4.283436059488e-05
 105     0.012064147582831
 106     0.011243594291507
 107    -0.012550999249894
 108    -0.065027976081183
 109     0.060694592086394
 110    -0.0031971749821485
 111    -0.0045075478706682
 112     0.074590235019204
 113    -0.0038859308367489
 114    -0.0055350651924381
 115     -0.17503327749537
 116    0.0097994501804943
 117     0.013237570183701
 118     -0.23642307888601
 119    0.0084017413064434
 120     0.013574509362504
 121     0.003944887021117
 122    0.0019186600706002
 123    -0.00031116079229473
 124    -0.0065416629080946
 125    0.00067175634205914
 126    -0.0013300109033309
 127    -0.0031359310411261
 128    0.00019683251169395
 129    0.0021883904899636
 130    -0.00046388777054248
 131     0.013837826048404
 132     0.013099152054588
 133    -0.019197713482497
 134    -0.064709408504516
 135    -0.0087024289896342
 136     0.063350559091073
 137    -0.0064196686040358
 138    -0.010740553949194
 139     0.077974748579397
 140    -0.0079460706703519
 141     0.024329267123057
 142     -0.18265504696095
 143     0.017856603656705
 144      0.03626173360714
 145     -0.24827768338964
 146     0.026339601614987
 147    0.0045913366611896
 148    -0.00048200489335858
 149    0.0017831135846518
 150    0.0079858158330285
 151    0.0018359366361792
 152    -0.0026438813207221
 153    0.0011465698728563
 154    -0.0018061346143106
 155    -0.0047983764584378
 156    -0.0011455265855969
 157      0.01092339389416
 158     0.010209093672958
 159    -0.012526565916107
 160    -0.057180421484045
 161    -0.011763287546324
 162    -0.010416666049268
 163     0.059705054452727
 164    -0.014486277784608
 165    -0.012812214765173
 166      0.07341551029949
 167     0.033416310499614
 168     0.029745476180592
 169     -0.17199539541912
 170      0.04468669742169
 171     0.039682271751677
 172     -0.23045679554919
 173    -0.0067931143740573
 174    0.0028638238928512
 175    0.0018473165345003
 176    -0.00014288224557148
 177    -0.00045656659194615
 178    0.0021959861924815
 179    -0.0030707831248459
 180    -0.00044650968859586
 181    0.00045535248081171
 182    0.00084248435027534
 183    0.0091863006629083
 184    0.0013693962846875
 185    -0.011403654801157
 186    -0.016247341357238
 187     0.010469726346601
 188    0.00021535315740622
 189    0.0099874774864375
 190     0.010594548006839
 191    0.00020741464648513
 192     0.010101256943843
 193    -0.025376934897911
 194    -0.0014955172363274
 195    -0.024803508153254
 196    -0.027410301154253
 197    0.0014590988643727
 198     -0.02235226609253
 199    -0.031828819301513
 200    -0.0015865318149015
 201    0.0030454523234559
 202     0.017300970006154
 203    0.0025287677609628
 204     0.010693733796401
 205    0.00081075851445978
 206    -0.0014056581420405
 207    -0.0059956398340123
 208    -0.0011428215660489
 209    -0.010958909946618
 210    -0.010574531458463
 211      0.01680225312295
 212     0.058623374808175
 213     -0.03515300723258
 214    0.0057387443886233
 215    -0.0050286501480823
 216    -0.043327058167094
 217     0.007066510544943
 218    -0.006165352461944
 219      0.10120624605018
 220    -0.016940225300891
 221     0.015439393049622
 222      0.14725682900262
 223    -0.020885227979139
 224     0.016081888617498
 225    -0.0069920630482416
 226    -0.0025207469412448
 227    -2.0414592025013e-05
 228      0.01170493989786
 229    -0.0012400609794433
 230    0.0081037344440317
 231    0.0036117412954569
 232    -0.00028135752143583
 233    -0.013542602376868
 234    0.0012491514347481
 235    0.00037009738516145
 236    0.00042258832739032
 237    -0.0021747126472663
 238    0.0021416507243365
 239    -0.0037856421164504
 240    -4.0762911726352e-06
 241    -0.0048117175143112
 242    -0.0046660821080035
 243    1.3351221212907e-05
 244    -0.005927759626163
 245     0.011231927360168
 246    0.00033843948377377
 247     0.014338291945121
 248     0.013969287517392
 249     -0.00175009598008
 250     0.017377765490483
 251    -0.0017400326911588
 252    -0.00017479801363376
 253    -0.0021654815951585
 254    0.00057799785695945
 255    -0.0018730183435631
 256    0.0026126376969475
 257    0.00031751947639754
 258    0.0028394839763667
 259    -0.00086816650499003
 260    0.0022815943424885
 261    -0.0041821953952053
 262    -0.003999499402328
 263    0.0075815863715465
 264     0.016321209439964
 265    -0.0027125890519764
 266    0.00097891442913091
 267     0.012124336183477
 268    -0.0033460300989299
 269    0.0011957093759267
 270     0.014955948085063
 271    0.0078506841493665
 272    -0.0029718340750095
 273     -0.03489047250449
 274      0.01106370559513
 275    -0.0030642206106262
 276    -0.047480874592621
 277    0.0017106698171572
 278    -0.00085027014718073
 279    0.00042194855924728
 280    0.00028309111260301
 281    -0.00010439296761481
 282    -0.0017617517992568
 283    0.00079837999873574
 284    -0.00069589793754456
 285    -0.00047869781962443
 286    0.00019001814971494
 287    0.0034293667069176
 288    0.0033050423842927
 289    -0.0068842332422548
 290    -0.012451158491295
 291    0.0099457112810528
 292    0.00019055290627483
 293    -0.0031548657073945
 294     0.012264910312836
 295    0.00023427205651914
 296    -0.0038818783491837
 297    -0.028812252857549
 298    -0.00059454448794473
 299    0.0093896345921591
 300    -0.037736931846003
 301    -0.00082084407822575
 302     0.011383851554123
 303    0.00028934825093176
 304    0.0011618734079264
 305    3.0262890501457e-05
 306    -0.0012811974047947
 307    0.0002865048757378
 308    -0.00016964407789186
 309    -0.0013168523864822
 310    2.2867477471128e-05
 311    0.0016032492617249
 312    -0.00060319527420776
 313    -0.00053329664006903
 314    -0.00053432208322893
 315    0.0012038226775719
 316    0.0021776438497595
 317    -0.0027073535644518
 318    -0.0011695553213311
 319    -0.0036765020752155
 320    -0.0033297831193962
 321    -0.0014305983630926
 322    -0.0045320084549692
 323    0.0079345915311701
 324    0.0034631369716285
 325     0.010608856175045
 326     0.010442553479191
 327    0.0050628709228015
 328     0.014572344675764
 329    -0.0002298803342467
 330    0.00017374579152213
 331    0.0010982461651045
 332    0.00012300833851144
 333      0.00106458204943
 334    0.00022890579398321
 335    -0.000309701141596
 336    -0.00095868843068025
 337    -0.00052454411326493
 338    -0.0010706076906453
 339    -0.013036773891012
 340    -0.0019663028594831
 341     0.017543233307304
 342       0.0206438623401
 343     0.013923343624073
 344    -0.00027640802082105
 345     0.013865701148241
 346     0.014066890722096
 347    -0.00027689796429738
 348     0.014019874470942
 349    -0.036879506547466
 350    0.00072444211627063
 351    -0.035289429439292
 352    -0.014975751828822
 353    0.0015071618060952
 354     -0.01616255441558
 355     0.033681159082149
 356    -0.00047867548627171
 357    0.00014623678404786
 358    -0.019533864087431
 359     0.003025280782746
 360    -0.011257004681825
 361    -0.00016410687826073
 362    -0.00030220919207839
 363    0.0066271210892499
 364    -0.0012989249272814
 365    -0.0025917204515931
 366    -0.0025621683579643
 367    0.0072590834974493
 368    0.0029126955045848
 369     0.010238533546993
 370    -0.001764006321219
 371    -0.0021822226621415
 372      0.01260513925016
 373    -0.002157969413616
 374    -0.0026807557913945
 375    -0.029895123932497
 376    0.0053994646033639
 377    0.0064108425415573
 378     -0.03411924469738
 379    0.0045087891213284
 380    0.0072142901215953
 381    -0.0002763894032146
 382    -0.00071419546228226
 383    0.00033177020012211
 384    0.00096755209710238
 385    -0.00043433939950154
 386    0.00047044287905501
 387    0.00079383917931101
 388    -0.00052469587071691
 389    -0.0014883101448655
 390    0.00083989008415484
 391    0.00087344622392596
 392    0.00082062700575051
 393    -0.0010179360923325
 394    -0.004688635862303
 395    -0.0056086508909994
 396    -0.003085494002923
 397    -0.0045237929739108
 398    -0.0069179597809381
 399    -0.0038072118481508
 400    -0.0055873926286749
 401     0.016085621422702
 402    0.0086729126972454
 403     0.012810303270116
 404      0.02131180485998
 405     0.013485375974968
 406     0.017750277418504
 407    0.0007815367795505
 408    -2.7273483123371e-05
 409     -0.00147939924917
 410    -0.00011988974259973
 411    -0.001568778325168
 412    -0.00070008210113064
 413    8.8070104993385e-05
 414    0.0019086620860739
 415    0.00042974416456217
 416    0.0017857853988496
 417    -0.011303467141258
 418    -0.011018793673375
 419     0.020394814514612
 420     0.051352808249111
 421    -0.0036903770168565
 422    0.0011264085329795
 423    -0.037482502685526
 424    -0.004584592944128
 425    0.0014171357949159
 426    -0.046153473856185
 427     0.010126168655832
 428    -0.0025236146970576
 429        0.107881946319
 430     0.017122577979112
 431    -0.0074791989070483
 432      0.15664488528244
 433     0.013491497733063
 434    -0.0028510200498866
 435    -0.00023565714216787
 436    -0.00013058496320953
 437    -5.8705006314189e-05
 438    -0.015742959586873
 439    0.0036828477422946
 440    0.00039829870931857
 441    0.00019741819721374
 442    0.00041268111872869
 443    0.00023422327450784
 444    0.0002292017617724
 445    -0.00045404118087035
 446    -0.0010347389680792
 447    -0.0026739027460367
 448    0.0013135427434724
 449    -0.0033978275594112
 450    -0.0032836122569261
 451    0.0016287230698235
 452    -0.0041828200367023
 453    0.0079463309344723
 454    -0.0036275296908101
 455    0.0098774269093377
 456    0.0088279682291875
 457    -0.0060613769616812
 458     0.012414941987447
 459    0.00077330340583123
 460    -1.7858637046423e-05
 461    0.00083780591750352
 462    5.0620812059358e-05
 463    0.00068110073424238
 464    -0.0010760453551826
 465    4.4351513589827e-05
 466    -0.00099739616532224
 467    0.00014690142921801
 468    -0.00081200311501218
 469    0.0035449134944986
 470     0.003424760822106
 471    -0.007717575760426
 472    -0.0093858859899235
 473    -0.0023578086763946
 474    0.0017264146044044
 475     0.014446871182547
 476    -0.0028961239318162
 477    0.0021191746828251
 478     0.017799454868418
 479    0.0069275656912406
 480    -0.0051423861598912
 481     -0.04173318370622
 482    0.0077409192463039
 483    -0.005192175229367
 484    -0.052073990875438
 485    -0.0015955959368048
 486    0.00074541223523842
 487    -0.00049447194605816
 488    -0.00025732817309735
 489    0.0003480150484263
 490    0.0018764184254938
 491    -0.00086141629616991
 492    0.00086642408861799
 493    0.00036779421235495
 494    -0.00050183761896983
 495      0.26557091832116
 496     0.040428644544052
 497     -0.37326710320837
 498      -0.3686273756848
 499    -0.006898887662569
 500    0.0025808649090338
 501    -0.0089799725310951
 502     -0.00697862313876
 503    0.0026363094728176
 504    -0.0091078861986022
 505      0.02331253199257
 506    -0.0029420191643469
 507     0.026892936462111
 508     0.014545607627091
 509    -0.020856130933052
 510     0.022360000820693
 511    0.0034509879015625
 512     0.006875182332916
 513    -0.00089732332369709
 514    0.0092434046933857
 515    -0.0013029432301041
 516    -0.0013057114206206
 517    -0.0037269948485648
 518    0.00012764788537061
 519    -0.0028038264271912
 520    0.0013747683254403
 521    -0.0083800847604844
 522    -0.0078456013876879
 523    0.0097918536129193
 524     0.044770405489804
 525     0.047303051597713
 526    0.0081431132132173
 527    -0.0097004302669688
 528     0.058182857599342
 529     0.010026411149161
 530    -0.011990084126158
 531      -0.1360661168405
 532    -0.023076853119999
 533     0.027072020933265
 534     -0.18382188099797
 535    -0.031974877288515
 536     0.038952145757956
 537    -0.0026407517574236
 538    -0.0024950926432912
 539    -0.00036137688206433
 540    0.0048837128650407
 541     0.001571814459463
 542    0.00051225709172223
 543    0.0031286041629306
 544    0.00087484128396239
 545    -0.0017597444655122
 546    -0.00063058410893779
 547    -0.010614065489342
 548    -0.010156651049873
 549     0.016170836601303
 550     0.053371971890457
 551    -0.0024902398823842
 552     0.044183882964369
 553    -0.0024018851868515
 554    -0.0030628545172341
 555     0.054457734869889
 556    -0.0029786481501601
 557    0.0069913471651879
 558     -0.12583329955792
 559    0.0064456209025485
 560     0.010675988477253
 561      -0.1843186849398
 562     0.011773589031756
 563    -0.0041846345017163
 564    0.00050359272767417
 565    -0.001025283452278
 566    -0.0072121891330498
 567    -0.0014201833053157
 568     0.003270517049272
 569    -0.00049032199677491
 570    0.0011589599995275
 571    0.0055829325514096
 572    0.0017684758263427
 573    -0.0093399311954048
 574    -0.0087371260178044
 575     0.010682337994652
 576     0.049015474526705
 577    -0.0084140880366637
 578    0.0061530770267142
 579     0.048183674649538
 580    -0.010375290942006
 581    0.0075693950448628
 582     0.059262638901486
 583     0.023891855989367
 584    -0.017563244492541
 585     -0.13850572713697
 586      0.03178484219955
 587    -0.023666756487907
 588     -0.18816019788638
 589      0.00601659629438
 590    -0.0026649405529984
 591    0.0012167444993867
 592    0.00021586116663924
 593    -0.00010261191305143
 594    -0.0024949325279455
 595    0.0035461324288525
 596    -0.00056532791859133
 597    -0.00043214967951572
 598    0.00048236522825703
 599    -0.011630632496699
 600    -0.010987024761781
 601     0.015621392114015
 602     0.054212063513842
 603    -0.0011916845337284
 604    -0.054268277781231
 605    -0.0012331165308688
 606    -0.0014763457530811
 607    -0.066802406357807
 608    -0.0015222285237704
 609     0.003343430295241
 610      0.15609365658027
 611     0.003515598241522
 612    0.0038970990631805
 613      0.21304824999918
 614    0.0043303769311915
 615    -0.0041870739096032
 616    0.00016137142924903
 617    8.9633267941137e-06
 618    -0.0069698910652933
 619    0.00063938057863452
 620     0.002713508472425
 621    -0.0006775720077419
 622    -0.00029743978276124
 623    0.0045238947137375
 624    -0.0014694745895568
 625    0.00076366590680473
 626    0.00082172611281797
 627    -0.022036251953487
 628    0.0012474086675111
 629    -0.0015182410559494
 630     0.000862322353788
 631    0.0011456558487584
 632    -0.0087566593521983
 633     0.010093330497201
 634    -0.00026736827587041
 635    0.00017513242877997
 636    0.00022951160389905
 637    -7.7140845427112e-05
 638    0.00012881541921552
 639    0.0032854923597788
 640    0.0058252174179114
 641     0.026687944140116
 642    -0.0060402111731387
 643    -0.0073185825192441
 644    0.0058352942991102
 645    0.0065935748692494
 646     0.014440307193199
 647    -0.0081301068930464
 648    -0.00010747502352183
 649     0.000106386919916
 650    0.00018150593317062
 651    -0.00013847464221795
 652    0.00010230800554546
 653    -0.0041361864714286
 654    -0.001558454185412
 655    -0.00010590828224748
 656    0.00025192381357931
 657    -9.8544769351763e-06
 658    -0.0011007170520123
 659    -0.0031700577369356
 660    -4.6740974748843e-05
 661    0.00021770350142044
 662    -0.00043714904647528
 663    -0.0020031367341802
 664    -0.030328240740606
 665    -0.00087809780041581
 666    -0.00070851594902068
 667    0.0010934145538015
 668    -0.00026890482120908
 669    -0.0022723041526843
 670    -0.00010572704136847
 671    -0.00017742678134081
 672    -0.0002223768268945
 673    0.0012260847982946
 674     0.011142487797189
 675    -0.00011488763824037
 676    -0.00052906450410328
 677    0.00027237070416949
 678    0.00090682524031963
 679      0.01857722883206
 680    0.00010722056105693
 681    0.00018797487835116
 682    0.00018627387730343
 683    0.0018750977097196
 684    -0.0011533695000891
 685    -0.030323931104429
 686     0.001503278262689
 687    0.0051212862607193
 688    0.0061413388819303
 689    -0.0048539376715636
 690    0.0070126439611457
 691     0.010038230302231
 692    -0.00018087896368103
 693    9.8164893783643e-05
 694    -0.00010889935554141
 695    0.0001488454722631
 696    3.124152222223e-05
 697    0.0012148339286949
 698    0.0020116846805719
 699     0.014790454425774
 700    0.00033119030254448
 701    0.0057776373466693
 702    -0.0017496556163441
 703    -0.0003033102948846
 704    -0.0085757582126217
 705      0.01059715540196
 706    -0.00027078416706134
 707    -0.00012460292055983
 708    -0.00021764637153496
 709    0.0001979424640587
 710    -0.00015017935677552
 711    0.0021671797596717
 712    -0.018754581307637
 713    -1.9796132349359e-05
 714    0.00015677952427448
 715    0.00092569454390119
 716    0.0023254492608129
 717     0.015566438620503
 718    0.00014726910842416
 719    2.8372898848766e-05
 720    0.00024188658089421
 721    -0.006324148198448
 722    -0.0080468696407968
 723    4.7391172214927e-06
 724    0.00035994369212911
 725    0.00027583061150552
 726    -0.0011353335794329
 727     0.020167624765367
 728    -0.00039898875657196
 729    -0.00048377975017819
 730    -0.00057570869714581
 731    0.00070111125971214
 732    0.0032065889144611
 733    0.00015095067134475
 734    0.00019737447579243
 735    5.6205769859421e-05
 736    -0.00024054386050556
 737     0.004576318925905
 738    0.00023193080220091
 739    8.5676051096284e-05
 740    0.00011327071248328
 741    -3.225515152688e-05
 742    3.550640361676e-05
 743    0.00019133997286408
 744    -5.448305442019e-06
 745    -6.7466168719598e-05
 746    -3.9117632486204e-05
 747    -0.00087165345558916
 748    4.7004788161104e-05
 749    -0.00090321604759724
 750    -6.3042169906979e-07
 751    1.220664713465e-05
 752    -1.2615652919571e-05
 753    -1.1975146635505e-05
 754    -1.0940260122797e-05
 755    -4.3642501262148e-05
 756    -0.0002010673533476
 757    0.00061659321687731
 758    -0.00070249836429638
 759    3.5985313559853e-05
 760    -0.00086791398252558
 761    0.0027843697585162
 762    0.00022065209697606
 763    0.0025027940244939
 764    -2.5001909890483e-05
 765    -2.1717009422181e-05
 766    -1.2337003136698e-05
 767    2.133431130105e-05
 768    -2.5860324387032e-05
 769    0.00076210412348595
 770    0.0032424618956246
 771    -0.00011201122647858
 772    1.9207965478641e-05
 773    8.3852226083952e-05
 774    -9.6572602476706e-06
 775    -0.0010567837659687
 776    0.00023099408179035
 777    2.6158914990898e-05
 778    0.00012711873136513
 779    -0.00075320985228517
 780    -0.0035560438537806
 781    9.1757046908462e-05
 782    -6.0543105267343e-05
 783    -0.00016141534890289
 784    2.0277898063621e-05
 785    -0.00080207888805375
 786    -1.177063742972e-05
 787    3.8184928532719e-05
 788    2.4820614416375e-06
 789    -4.7246929925761e-05
 790    0.00067005434827729
 791    6.0760991624733e-06
 792    -4.4932504362597e-05
 793    -6.9416514076582e-06
 794    1.6625383161433e-05
 795    -9.7396956838211e-05
 796    3.1659496220282e-05
 797    -1.6059615083606e-06
 798    2.0376573367299e-05
 799    0.0018221693321688
 800    -0.0037460225602542
 801    -0.014897788274074
 802    0.0027770663694683
 803    -0.0025402311902362
 804    -0.0036336783394732
 805    0.0020539768972725
 806    -0.0020637182944843
 807    0.0040168155724866
 808    0.00041462634440769
 809    -2.216031352937e-05
 810    6.7511118680477e-05
 811    -4.6765262997016e-05
 812    -0.00047033571358919
 813    0.0038777130586113
 814    0.0090559923335708
 815     0.014703214603302
 816    0.0065281535558427
 817    -0.0052629445421494
 818    -0.0083578383463932
 819    -0.0019730482650383
 820    0.0022362222439219
 821    0.0023888793681381
 822    0.00022215775413592
 823    0.00027783492137385
 824    -0.00026018948232546
 825    -2.6958979938225e-05
 826    -1.0831359655785e-05
 827     0.002273300830384
 828    -0.0032432813375618
 829    0.0013673302877659
 830    -0.00096564669167376
 831    -0.00080941204118838
 832    0.0048444202465338
 833    -0.009065242495139
 834    0.00055720994766032
 835    -0.00085470595068815
 836    -0.001655736653124
 837    -0.0059074063566436
 838    -0.0040816935876347
 839    -6.2465161743106e-05
 840    0.00056402674730908
 841    0.0002858851406686
 842    -0.0033226370394352
 843    0.0032813854729616
 844    -0.00019252499695456
 845    -0.00052436262061178
 846    0.00022817500807336
 847    0.00052970215069833
 848    0.0032372882547971
 849    -1.9439371485189e-05
 850    -6.2724712682625e-05
 851    -0.00029373860985042
 852    0.0034556936629286
 853     0.011932487960026
 854    0.00019388784038437
 855    5.236305001577e-05
 856    0.0003114376277087
 857    0.0008085449399049
 858    -0.0037195912997036
 859    0.0024247997103209
 860    0.0058488970218492
 861    -0.0015683420798298
 862      0.00582920382708
 863    0.0017719599930404
 864     0.009218429745977
 865    -0.0026222648273727
 866    0.00033723466166097
 867    0.00049976506329608
 868    -0.00011338652587298
 869    0.00041789902511987
 870    5.3183108970687e-05
 871    0.00078947317542867
 872    0.0024997009841321
 873    -0.0049128976077237
 874    0.0090209347150744
 875    -0.0018679175283682
 876    0.0094291597116503
 877    -0.0094231648136032
 878    9.9233494270991e-05
 879    -0.0043075092476385
 880    0.00020195451638817
 881    0.00010734638411372
 882    0.00010461269945931
 883    0.00020785168464098
 884    0.00030048747319304
 885    0.0060385431138826
 886    -0.013547133964064
 887    0.0013439830177643
 888    -0.0010668254572304
 889    0.0013769531424301
 890    -0.0022000789727544
 891    0.0013277730904594
 892    -0.00020596538213817
 893    0.00024710260935111
 894    5.3509948316718e-05
 895    0.00013730201171275
 896    0.0074797474593977
 897    0.00018828010761923
 898    9.1749760897508e-05
 899    0.00028152124376654
 900    -0.0021363484855033
 901    0.0078964120574381
 902    0.00018052308727497
 903    -3.8018247248928e-05
 904    2.3885076707958e-05
 905    0.0059235089640206
 906    0.0055586426591652
 907    -0.00048277576283529
 908    0.00048621053192138
 909    -0.0005675466841627
 910    -0.0028635429849424
 911    -0.0033210023053406
 912    0.00038583248156704
 913    -0.00050020550198024
 914    6.3936654943801e-05
 915    -0.0012669428316739
 916    0.0040702303273697
 917     0.006830258938685
 918    0.0050746398936919
 919    0.0037938400502782
 920    -0.0023652372264111
 921     0.002486914986385
 922    0.0022060314494205
 923    -0.0013267447681869
 924    -9.6908694342177e-05
 925    -0.00028109056430209
 926    -0.00017696414628412
 927    0.00019758615576563
 928    0.00026558805630028
 929    -0.002385467088248
 930    -0.0065227696172566
 931    -0.003186445171451
 932    0.0012423849290032
 933    0.0057904261360469
 934    -0.0061500090733874
 935    0.0091773873930682
 936    -0.0025061115106142
 937    0.0041709395055181
 938    -6.5409022168787e-05
 939    -0.00048142884236334
 940    -0.00019073788766557
 941    0.00012191421735785
 942    0.00043388084801577
 943    -0.0037484353504866
 944     0.016846609997696
 945    0.00040568413109409
 946    0.00065572014545036
 947    -0.00072044366290868
 948    -0.0038809196173727
 949    -0.0066999008263228
 950    0.0005980685817388
 951    0.00060082525231752
 952    -3.971924130413e-06
 953    -0.0032373566669251
 954    -0.0078722729218819
 955    0.0006539387802305
 956     2.08704042639e-05
 957    -0.00045640545311827
 958    -0.00040100123761295
 959    -0.0021124562635449
 960    3.2346269963002e-05
 961    0.00021873930205186
 962    -0.00013947718484607
 963    -0.0007528410357811
 964    -0.003301375412092
 965    0.00028830417011374
 966    5.2334422165203e-05
 967    3.9201559197404e-05
 968    -0.0011948683806109
 969    -0.0018386731442318
 970    -3.8992621961309e-05
 971    2.3568792387989e-05
 972    -0.0002837555526867
 973    0.0016114946741234
 974    -0.0023786670364348
 975    -0.016566287160691
 976    0.0068642262626876
 977    0.0036498144350008
 978    0.0032873180570988
 979     0.008465423808841
 980    -0.0017508954576562
 981    0.0069913437967796
 982    -4.7044132545082e-05
 983    -0.00036971622512425
 984    -0.00039575806866699
 985    -0.00015541963324511
 986    0.00033987705808298
 987    0.0019955126239682
 988    0.0038113323616295
 989     0.014230391861568
 990    0.0021341649771336
 991     0.010791172812179
 992    -0.0041155702183558
 993    -0.0041471131434392
 994    -0.015002236898157
 995    0.0049951910380422
 996    -7.8714116486576e-05
 997    -0.00026996736204347
 998    5.5163684032612e-07
 999    2.5241762250673e-05
 1000    -6.1712022461495e-05
 1001    -0.0010168633377643
 1002    -0.028220490478217
 1003    0.00079358055280351
 1004    0.00075782876191864
 1005    -0.00078802328634517
 1006    -0.0025307257667905
 1007    -0.00061093315131797
 1008    -0.00044699824915896
 1009    -0.00030933788211556
 1010    -7.8576597159384e-06
 1011    -0.0017886019652838
 1012     0.010274792465648
 1013    -0.00037305300887015
 1014    -4.3132518646507e-05
 1015    0.00051274785136966
 1016    -0.0016739604487844
 1017    -0.0029097784550525
 1018    0.00016225600133595
 1019    3.5308357674289e-06
 1020    -0.00012771185089495
 1021     0.006163828175901
 1022    0.0065242748389678
 1023    -7.0028827347542e-05
 1024    -0.00011436254029863
 1025    0.00014160710102801
 1026    -0.0050789317671267
 1027     0.016490954633541
 1028    -0.0005091305497243
 1029    -0.00030717029126206
 1030    1.4493049987621e-05
 1031    6.0979898127191e-05
 1032    0.00073234112885518
 1033    -0.0074884114555244
 1034    -0.0022865268757903
 1035    0.0016533688343982
 1036    -0.0021356185346752
 1037    -0.0092625601938183
 1038     0.011701418646701
 1039    -0.008210241349775
 1040    -3.6466184581034e-06
 1041    -3.3670782627595e-05
 1042    5.1398341932637e-06
 1043    -7.8808752792278e-05
 1044    8.7693346719295e-05
 1045    -4.7020792770275e-07
 1046    -0.00011319757175528
 1047    0.0015326788429329
 1048    -0.0020810769093886
 1049    0.0018811656035667
 1050    -0.0020357772649212
 1051    0.0083040762280974
 1052    -0.0088779236940581
 1053    0.0078427864830447
 1054    0.00021632492587759
 1055    7.8472824224489e-06
 1056    2.476367690249e-05
 1057    -9.4427121035682e-05
 1058    0.0002811902055515
 1059    0.0015450687679466
 1060     0.012441701563604
 1061    0.0004323986271047
 1062    -0.00025460219852346
 1063    -0.00035314020753293
 1064    -1.0768015945595e-05
 1065    -0.0075193195103733
 1066    -0.00027716117123118
 1067    -0.00015076084161654
 1068    0.00037408838640621
 1069    -0.00085485503623662
 1070    -0.0064247264186466
 1071    -3.0484154874271e-05
 1072    -0.00011300997255748
 1073    0.0003658923122446
 1074    0.00097599099380491
 1075     -0.01015844536191
 1076    0.00040643696667204
 1077    0.00029599244042606
 1078    -4.0781800983103e-06
 1079    -0.00092068231062046
 1080     0.024402466918262
 1081    -0.00044078991855668
 1082    -0.00017405092848151
 1083    0.00046768328021237
 1084    -0.00011654123087868
 1085    -0.005709946738352
 1086    0.00010079185951617
 1087    0.00012167759044543
 1088    -0.00026557269234829
 1089    -0.0020067498522787
 1090    0.0032133412751638
 1091     0.021147748761692
 1092      0.00495431836739
 1093    -0.0042494230372722
 1094    0.0017356223525586
 1095    0.0057525980616636
 1096    -1.2746498070727e-06
 1097    0.0051050191837229
 1098    7.6345588016773e-07
 1099    0.00024437199597438
 1100    -0.00031228065483859
 1101    0.00020252236182752
 1102    0.00026716820444451
 1103    -0.0017254014875854
 1104    -0.0030485271493945
 1105    -0.014061441156505
 1106     -4.2753529873e-05
 1107    -0.0085865274423081
 1108    -0.0026963968195026
 1109    0.0025001333478519
 1110     0.013231772751519
 1111    0.0047211412478015
 1112    -1.6791501792722e-06
 1113    8.7291174244858e-05
 1114    -8.3918137542653e-05
 1115    3.6850577307085e-05
 1116    -2.4116135592638e-05
 1117    0.00061509758208974
 1118     0.024031877393108
 1119    0.0007518280809861
 1120    -0.00052137667107723
 1121    -0.0007067396747072
 1122    0.0028987320936858
 1123    0.0071113593047735
 1124    -0.00015024879502641
 1125    0.00025128463335025
 1126    0.00017676810970794
 1127    0.00016977618327374
 1128    -0.012333544134983
 1129    -0.00011647231280102
 1130    0.00010797929499242
 1131    0.00028102262834109
 1132    0.0024269260897737
 1133    -0.0038332783963673
 1134    0.00020379332473352
 1135    7.161748759284e-06
 1136    -0.0001355639657782
 1137    -0.0051952928238982
 1138    -0.0077308701094875
 1139    1.3179882584891e-05
 1140    0.00012279784398104
 1141    0.00014779100596192
 1142     0.003481077120718
 1143    -0.015198579884796
 1144    -0.00039336447213182
 1145    0.00033557038139954
 1146    -4.7368684464075e-06
 1147    8.8430428989417e-05
 1148    -0.00023450717200109
 1149    -0.00054560992170154
 1150    0.00029447701309402
 1151    -0.00018002584039577
 1152    -4.8830287060214e-05
 1153    -0.00068811137033785
 1154    4.1716916449823e-05
 1155    -0.00083190840560085
 1156    6.6813107994081e-06
 1157    2.6088592649713e-06
 1158    -1.2557346603332e-05
 1159    7.3662323780939e-06
 1160    1.4990265490038e-05
 1161    0.0001286222951129
 1162    0.00037526245939667
 1163    -0.00010280915542325
 1164    -0.00064862809310699
 1165    3.7116177873116e-05
 1166    -0.0012799313172255
 1167    0.0024323138776003
 1168    -0.00041024388142839
 1169    0.0027135078017737
 1170    4.2167589222109e-05
 1171    2.042331032469e-05
 1172    -4.6716103012949e-06
 1173    -2.2491500453776e-05
 1174    3.2559782875387e-05
 1175    0.00053389331313488
 1176    0.0039327347125542
 1177    0.00011403592033855
 1178    -5.8797045969131e-05
 1179    -0.00027007556644206
 1180    9.7859306374972e-05
 1181    1.2949349430106e-05
 1182    0.00017993865771784
 1183    -1.2531411283571e-06
 1184    7.5527018716689e-05
 1185    -0.00028642866052634
 1186    -0.0034091545317419
 1187    -0.00024962245012939
 1188    -1.1313655745556e-06
 1189    6.4871090514538e-05
 1190    -0.00016140893455618
 1191    -0.00014937864527803
 1192    1.8991557040506e-05
 1193    -3.4702732228683e-05
 1194    -8.2626337622408e-06
 1195    0.00017560233040135
 1196    0.00059816752908882
 1197    -3.865493853414e-06
 1198    3.1700353114009e-05
 1199    -7.5365383875078e-07
 1200    6.5707843363666e-05
 1201    0.00023837154937621
 1202    2.8676550665118e-05
 1203    -1.4857710953266e-05
 1204    2.4897032965766e-05
 1205    -0.0014857103556324
 1206    0.0027782554810444
 1207     0.013026814735208
 1208    -0.0029324149512373
 1209    0.0016020151535842
 1210    0.0026343156975895
 1211    0.0023722305031197
 1212    0.0016381171627601
 1213    0.0025629540732369
 1214    0.00027652899408509
 1215    -2.5016190379264e-05
 1216    -0.0003708376356665
 1217    -0.00013289110323374
 1218    6.8997257224758e-05
 1219    -0.0030342771209078
 1220    -0.0069985162418922
 1221    -0.012367674604191
 1222    -0.006276746109104
 1223    0.0042798290113076
 1224    0.0056739261137712
 1225    0.0011347292559137
 1226    -0.0028070966520816
 1227    -0.0021601408572024
 1228    0.00011832462117144
 1229    -0.00029198349206731
 1230    -3.3735305673162e-05
 1231    -0.00010022432161248
 1232    -0.00020605933643144
 1233    -0.0039648229382734
 1234    0.0060966666536556
 1235    -0.0012200380661465
 1236    0.00052615308676135
 1237    0.00043498291629693
 1238    -0.0020426482384831
 1239    0.0045904705749466
 1240    -0.00084004999439932
 1241    0.00090817950290541
 1242    0.0010140690357521
 1243    0.0057805596837553
 1244    0.0030704700339025
 1245    0.00019917105011214
 1246    -0.00045210318302218
 1247    9.1896184726951e-05
 1248    0.0026665807422244
 1249    -0.0038370558707915
 1250    0.00021483122007532
 1251    0.00047907368890944
 1252    -0.00021870770408594
 1253    -0.0022146439755602
 1254    -0.009400850090388
 1255    0.00021730984055518
 1256    -5.8715504636869e-05
 1257    0.00018996864480736
 1258    -0.00089886664148872
 1259    -0.0025953254539066
 1260    -0.00022929992294922
 1261    2.5197824322922e-05
 1262    -7.1747016740338e-06
 1263    -0.0008352280759383
 1264    0.0016419427597072
 1265    0.0070996881075403
 1266    0.0018727466495464
 1267    -0.0025046360926777
 1268    0.0046180258882989
 1269    0.0060202009690472
 1270    0.0037948509886009
 1271    0.0042532484861382
 1272    4.386829886216e-05
 1273    0.00023887974636818
 1274    0.00034530040060419
 1275    0.00018300880855898
 1276    -0.00030907376804895
 1277    -0.0015394851583966
 1278    -0.003114038131629
 1279    -0.0091667769729594
 1280    -0.0038940752636609
 1281    -0.0086787517779216
 1282    0.0015440053145443
 1283    0.0030782662072362
 1284     0.012100601756467
 1285     -0.00428908413323
 1286    -7.8415416061047e-05
 1287    8.0182040391111e-05
 1288    1.3207616896555e-05
 1289    8.709851420906e-05
 1290    0.00010479191000291
 1291    0.00023804928219976
 1292    -0.00018397578705516
 1293    -0.00019562867942327
 1294    0.00022029720214498
 1295    -0.00053111758566065
 1296    0.0008451774051752
 1297     0.023441514401081
 1298    -0.00089246675182287
 1299    -0.00052224062140724
 1300    0.00064035703788875
 1301    0.0021552010477973
 1302    -0.0089819330128586
 1303    0.00052214319219579
 1304    1.3894153815305e-05
 1305    -0.00028915479661186
 1306    0.0016908530526231
 1307    0.0046491760565998
 1308    -9.4571315232676e-05
 1309    -1.4424578212822e-05
 1310    0.00017123536182437
 1311    0.0038946463752889
 1312     -0.01127865177133
 1313    7.140573621824e-05
 1314    5.8798856713453e-05
 1315    -0.00023403395754165
 1316    -0.0054437994773585
 1317    -0.0046974950363794
 1318    -5.5669303555336e-05
 1319    0.0001492437450043
 1320    -0.00018423286624157
 Sym= A
 Ene=    -0.206741079
 Spin= Alpha
 Occup=    2.00000
   1      -0.2284593209204
   2    -0.034823544170097
   3      0.31573093818127
   4      0.33615509268436
   5    -0.0070025988003589
   6    -0.0015704473185267
   7    -0.0051004204619177
   8    -0.0071606455747754
   9    -0.0015984036744693
  10    -0.005179509416799
  11     0.018502879302534
  12    0.0014181583570042
  13     0.016145079428954
  14     0.024686104934672
  15     0.016618787109125
  16      0.02123154339784
  17    -0.0064396185276993
  18    -0.0022565335927281
  19    -0.0027543765851731
  20     0.011115681506329
  21    -0.0018320746236573
  22    0.0029583939139868
  23    0.0010556085070153
  24    0.0013006639716612
  25    -0.0031634233541925
  26    0.00025258366796357
  27    0.00053943960407167
  28    0.00074274229223753
  29    -0.0058217470219955
  30    0.0068368174971366
  31    -0.049716261347075
  32    0.0012393935249032
  33    0.0055829945422348
  34    -0.061294549415463
  35    0.0015242660668932
  36    0.0069155143056372
  37      0.14147982205152
  38    -0.0036648136838149
  39    -0.015531925622368
  40      0.22316253571633
  41    -0.0046444769216294
  42    -0.024741456512626
  43    0.00034034488803175
  44    -0.0024340664846192
  45    -3.7917722396052e-05
  46    -0.0011311143346574
  47    -0.0013581158492339
  48    -0.0015109386617326
  49    0.0024321010009123
  50    -0.00023528226272694
  51    0.0029042166623568
  52     0.001194888150657
  53    0.0070347989768871
  54    0.0066374560532145
  55    -0.0074141109387443
  56     -0.04626560071112
  57    -0.0072153195813347
  58    -0.027711046238664
  59    -0.0047042367579429
  60    -0.0089273122458292
  61    -0.034218798189029
  62    -0.0057973714145776
  63     0.020125007186429
  64     0.077993754950359
  65     0.013466072682968
  66     0.030391239358254
  67      0.12646614151918
  68     0.018568767454818
  69    0.0032971672906276
  70    -0.0003637457906102
  71    -0.001828249079324
  72    0.0062067734612975
  73    -0.0020932263499033
  74    -0.0024950302693327
  75    0.00050753868751501
  76    0.0021126222969451
  77    -0.005204631952734
  78    0.0022357124794673
  79    0.0062863349885456
  80    0.0062628201821318
  81    -0.014512251426772
  82    -0.020495949905037
  83    0.0024784240107745
  84    -0.0008869922904024
  85    -0.031367528404518
  86    0.0030901743614379
  87    -0.0011011221734368
  88    -0.038807183714936
  89    -0.0066159484704472
  90    0.0023147113980101
  91     0.087794566318571
  92    -0.013517727867053
  93    0.0046465988983498
  94      0.15683737896567
  95    -0.0066347768657642
  96    -0.0023705401169128
  97    -0.0015184908354871
  98    -3.7163430623698e-05
  99    -7.3292228017161e-06
 100    0.0079236742465045
 101    0.0026183371216646
 102    0.0016656497005189
 103    -0.00016393026705485
 104    0.00040370653690997
 105     0.011292491949141
 106     0.010608839983987
 107    -0.014377195219224
 108    -0.054168191014876
 109     0.048169942109899
 110    -0.0029538091589758
 111    -0.0030617065548839
 112     0.059245708113825
 113    -0.0035952409495194
 114    -0.0037625820413562
 115     -0.13880434876466
 116    0.0090633443715989
 117    0.0090276271373835
 118     -0.18961732202478
 119     0.007858960139871
 120    0.0091080805833254
 121    0.0033388030295042
 122    0.0016666260444789
 123    -0.00024878408229928
 124    -0.0058339984956689
 125    0.00063297410720693
 126    -0.001481302378252
 127    -0.002878038508614
 128    0.00024026068456853
 129     0.002944644343718
 130    -0.00058217091713588
 131    0.0093029528478074
 132    0.0087886685567928
 133    -0.011713162666631
 134    -0.047487825387987
 135    -0.0093123730747097
 136     0.038434700723979
 137    -0.005895437869458
 138     -0.01148542991925
 139     0.047358956093019
 140    -0.0072890353533337
 141     0.026562288624692
 142     -0.11034627017653
 143      0.01663781708789
 144     0.036730190555102
 145     -0.15850984690274
 146     0.023490622986017
 147    0.0033569101143668
 148    -0.00022202468954956
 149    0.0016261267723953
 150    0.0060542248290876
 151    0.0023133586195202
 152    -0.0020475561477132
 153    0.00069128266539381
 154    -0.0017045795427585
 155    -0.0039433925560413
 156    -0.0019677575173375
 157    0.0089769304397484
 158    0.0084482950982437
 159    -0.011448842845918
 160    -0.044257248837956
 161    -0.0089819046738674
 162    -0.0074036976356587
 163     0.039791438842968
 164    -0.011078251019309
 165    -0.0091019237421043
 166     0.048961951754939
 167      0.02541022772957
 168     0.021390620879665
 169     -0.11447321153014
 170     0.035404214846488
 171     0.027624766244722
 172     -0.15858419232407
 173    -0.0052991379256648
 174    0.0027457001441493
 175    0.0015299454441672
 176    -0.00011104751148462
 177    -0.0003437185683495
 178    0.0020477405278216
 179    -0.0029390270973891
 180    -0.00073346112372902
 181    0.00045114181324581
 182    0.00051573556696705
 183      0.12874679167384
 184      0.02003956628309
 185      -0.1767911053349
 186     -0.20497210838525
 187    -0.008397444412146
 188    0.0014519639561368
 189    0.0052822840092284
 190    -0.0084785656826456
 191    0.0014775226561058
 192    0.0053211768901263
 193     0.023545485631824
 194    -0.0042401952414268
 195    -0.015836152537984
 196    0.0068327002701121
 197    -0.011199052165356
 198    -0.00022202154999376
 199    -0.0064401322104693
 200    0.0030104445332219
 201    0.00044317233041559
 202    -0.014081569089957
 203    -0.0011255223513625
 204    0.0018211001859031
 205    -0.0013880895800674
 206    -0.00053966156764254
 207    0.0046125459644929
 208    0.0007841571058955
 209    0.0072619010521802
 210     0.007122768011584
 211    -0.013716902122218
 212    -0.031392699521002
 213     0.036667013538885
 214    -0.0023400236153162
 215    -0.00025475545494115
 216     0.045320027248689
 217    -0.0029256563733676
 218    -0.0003461582637277
 219     -0.10318311000752
 220    0.0060535325071863
 221    1.3332815550334e-05
 222      -0.1790137260981
 223     0.012968413065803
 224    0.0045996708553293
 225    0.0044457017146631
 226    -0.0027011852512685
 227    0.00045859181937061
 228    -0.0072504387360133
 229    0.0015003431275986
 230    -0.005513177626215
 231    0.0027679199616357
 232    -0.00047798362815873
 233    0.0088187438201119
 234    -0.0015114193453948
 235    -0.0013531741340911
 236    -0.0011030073906811
 237    -0.0040606373664172
 238     0.026275343207346
 239    0.0037373323294832
 240    0.0072924005648709
 241    -0.0036025964457439
 242    0.0046292257400199
 243    0.0091048342149052
 244    -0.0044330519324598
 245    -0.010656923143958
 246    -0.019252225490784
 247     0.010873318760067
 248    -0.015834759732567
 249      -0.0468888402643
 250     0.012561292244335
 251    -0.0023006339873101
 252    0.00038883503360896
 253    -0.0018523891268056
 254    -0.0039932562110112
 255    0.0019809532948245
 256    0.0024263747432723
 257    -0.00047512311107219
 258    0.0023794866818261
 259    0.0041244629686578
 260    -0.0025325625865233
 261    -0.0077804739334147
 262    -0.007367062930836
 263     0.010083167957326
 264     0.039138679240069
 265    0.0041909163308242
 266    0.0024732324943909
 267     0.023685381163645
 268    0.0051627357338152
 269    0.0030599917120333
 270     0.029241967099133
 271    -0.012388155112101
 272    -0.0070522223879859
 273    -0.067627338733951
 274    -0.015357614289719
 275    -0.009466491361613
 276     -0.10408695496637
 277    0.0054685040951274
 278    0.0015243263112712
 279    0.0011830971026815
 280    -0.00025158525682787
 281    0.00032189332962263
 282    -0.0043129906870405
 283    -0.0017099618902272
 284    -0.0017674593829795
 285    0.00043056318862303
 286    -0.00054635800176261
 287    -0.0079982877024558
 288    -0.0075751968294414
 289     0.010572774247544
 290     0.039959519444069
 291    -0.023429492273585
 292    0.0023610930337991
 293    -0.0041290061140285
 294    -0.028949495500784
 295    0.0029119507625684
 296    -0.0050875715654924
 297     0.066690661510402
 298    -0.006934706811652
 299       0.0121837521307
 300      0.10383212285187
 301    -0.0083101194122475
 302     0.015206698192728
 303    -0.0029814185483925
 304    0.0017090400466637
 305    -0.00021089972114379
 306    0.0047056210180773
 307    -0.0010124068402895
 308    0.0027364645727231
 309    -0.0020969498984518
 310    0.00042282719640009
 311    -0.0039461687109817
 312    0.0015374548443144
 313    -0.0041588116303445
 314    -0.0038444889172957
 315    0.0028773832964217
 316     0.027043678827094
 317    0.0058705214332703
 318    -0.015070751573622
 319     -0.00570293359785
 320    0.0072567970056284
 321    -0.018585019962528
 322    -0.0070431160154391
 323     -0.01676686425659
 324     0.042996254269904
 325     0.016326283435806
 326    -0.023909262711007
 327     0.067500804980151
 328     0.023039829296801
 329    -0.0013980209444738
 330    -0.00040438332828264
 331    0.0019066763707838
 332    -0.0026124199631032
 333    -0.0018442287197786
 334    0.00060645768226435
 335    0.00061375062213777
 336    -0.0018144734313017
 337    0.0012607154633947
 338    0.0016923563576743
 339      0.24028392038714
 340     0.036921200335525
 341     -0.33530278231488
 342     -0.35188509603366
 343     0.014964186432876
 344    -0.0056201993349724
 345    -0.014768701112232
 346     0.015174069552337
 347    -0.0057123744847243
 348    -0.014958256307106
 349     -0.03623370098388
 350     0.013803042202915
 351     0.035331753981091
 352    -0.017859735606605
 353     0.005734825920381
 354     0.013689812938128
 355    -0.010478188865996
 356    0.0031277527121428
 357    -0.00083481233846767
 358    -0.0090784902224469
 359    0.0029112128519173
 360    0.0027504885760338
 361    -0.00090289808050791
 362    0.00037410898534333
 363    0.0037023278753382
 364    -0.00085870856306964
 365    -0.010673018112592
 366    -0.010136228970038
 367     0.015743211213143
 368     0.048413492085541
 369     0.039793745645903
 370    -0.0043962681774719
 371    0.0042805908275771
 372     0.049110777835465
 373    -0.0054474382989502
 374    0.0053030399315953
 375     -0.11350410618661
 376     0.012265752446587
 377    -0.011946627410735
 378     -0.16449424607002
 379     0.018079494186462
 380    -0.018332945081641
 381    -0.0038817698425002
 382    0.0014750425433008
 383    -0.00057021842435108
 384    0.0060453855989741
 385    -0.0020419091700671
 386    0.0035922638928603
 387    -0.0018468509744559
 388    0.00097745542648619
 389    -0.0048895684661049
 390    0.0027603441456556
 391    -0.0094892480522105
 392    -0.0089689975726762
 393     0.010904723325076
 394     0.054151683969474
 395    -0.0054688534969125
 396     0.033578486129762
 397    0.0057948640626877
 398    -0.0067661992867604
 399     0.041440615723387
 400    0.0071821834710829
 401     0.015695091967733
 402    -0.095169635636078
 403     -0.01634949575009
 404     0.020522898610929
 405     -0.15007023660073
 406    -0.023316078618144
 407    -0.0038570025382905
 408    -4.9549090611432e-05
 409    0.0022612955813248
 410    -0.0067259581670126
 411    -0.0021259191539601
 412      0.00276285941845
 413    0.00030054935063279
 414    -0.0031881529073595
 415    0.0048155573073165
 416      0.00317443453669
 417    0.0019853648231658
 418    0.0020636635260038
 419    -0.0064025117783071
 420    -0.0037783646513176
 421    -0.0049447988596353
 422    0.00049531346406625
 423     0.056395960801713
 424    -0.0061285932284388
 425    0.0006030791862942
 426     0.069539862844443
 427     0.013728333742956
 428    -0.0017805003725932
 429     -0.16090713500251
 430     0.022728931752628
 431    -0.00094203439961137
 432     -0.25519394117942
 433    -0.0028585661551268
 434    -0.002393542009459
 435    0.00044985401427659
 436    3.4694575984776e-05
 437    0.00024822943342255
 438    0.0044944495159084
 439     0.002525937114353
 440    -0.00056946308073045
 441    -0.00015563546322111
 442    -0.00022652854135154
 443    -0.0073471680021492
 444     -0.00680942763021
 445     0.005988026195182
 446     0.046278449543035
 447    -0.0043338542747819
 448    -0.031515615833983
 449    0.0031753556358382
 450    -0.0053227804968417
 451    -0.038908757707053
 452    0.0039014444909997
 453     0.012876688055268
 454     0.089467227933478
 455    -0.0094341386771339
 456     0.015800486372016
 457       0.1356450992601
 458    -0.011110005211365
 459    -0.003623503848485
 460    0.00011458022234227
 461    -0.00081345815440647
 462    -0.0060209254261206
 463    0.0012000111623155
 464    0.0031658636302266
 465    -0.00034146515290823
 466    0.00074327603556201
 467     0.005302160508771
 468    -0.0009836616909568
 469    -0.011399392589714
 470    -0.010840031039165
 471     0.017274678392357
 472     0.050277310680906
 473    -0.0036279109317752
 474    -0.0023975085770655
 475    -0.043356540802346
 476    -0.0045046545796125
 477    -0.0029842254207257
 478    -0.053490026888955
 479     0.010022118227942
 480    0.0065251182967087
 481      0.12386426554227
 482     0.016042188039608
 483     0.010061775729645
 484      0.17748948583786
 485    0.0078218072789003
 486    0.0012364336212978
 487    0.0013616511060528
 488    -0.00015441469348381
 489    0.00040831403566117
 490    -0.006580022275788
 491    -0.0016984672768275
 492    -0.0021219931629193
 493    0.00032006520813565
 494    -0.00079004006953264
 495     -0.26271594365064
 496    -0.040180617099628
 497      0.36448082773807
 498      0.38652766077374
 499    0.0030944492568159
 500    -0.0021039258313864
 501    0.00041578795230615
 502    0.0031359030091631
 503    -0.0021556938368671
 504    0.00046229799334449
 505    -0.013289293233705
 506    0.0014389922853712
 507    -0.0048029772333939
 508     -0.01432421447597
 509     0.021657693747844
 510    -0.014325899412476
 511     0.011127712230781
 512    -0.0028151332235378
 513    0.0015456564056224
 514    -0.0029115163216073
 515    0.0010710972453611
 516    -0.003931539334381
 517    0.0015021897912136
 518    -0.00058466874396091
 519    0.0011996705346714
 520    -0.0011805612588419
 521    0.0096090916057466
 522    0.0090424624649354
 523    -0.012243315217375
 524    -0.048300036201566
 525     -0.04396465902417
 526    -0.0077254648207527
 527    0.0095181173085176
 528    -0.054117143257447
 529    -0.0095091247831202
 530      0.01178095008341
 531      0.12622310797101
 532     0.022112439994059
 533    -0.026476990017013
 534       0.1761623534975
 535     0.029850630952263
 536    -0.039334150846694
 537    0.0028234737333291
 538    0.0030228539771394
 539    0.00042413068663491
 540    -0.005261234736559
 541    -0.0017336515581006
 542    -0.00067613520892498
 543    -0.0037438519653805
 544    -0.00081059255919326
 545    0.0023252620240175
 546    0.0010237454159471
 547    0.0088166733244371
 548     0.008354346350377
 549    -0.010297030766003
 550    -0.055097858735708
 551    0.0042422754636221
 552    -0.034281722089016
 553    0.0062281677034606
 554    0.0052449603473962
 555    -0.042316784428626
 556    0.0076934115265296
 557    -0.011797316796261
 558     0.096823125576663
 559    -0.017682772945214
 560    -0.018314349997202
 561      0.15444579258113
 562    -0.025107576343936
 563    0.0043484621637313
 564    -0.00045762014514659
 565    0.0019591789319985
 566    0.0070522678170028
 567    0.0018630176429191
 568    -0.0036597431374319
 569    0.00054260536020796
 570    -0.0022616505807833
 571    -0.0054573318344757
 572    -0.0022502770362113
 573      0.01193053025126
 574     0.011246466929005
 575    -0.016202210441527
 576     -0.05609464502414
 577     0.007811436397949
 578    -0.0067303117997881
 579    -0.051196458317983
 580     0.009647510888803
 581    -0.0082736366536763
 582     -0.06301362944486
 583    -0.022052948600132
 584     0.019436812067472
 585      0.14710541040428
 586    -0.030527339716747
 587     0.025202547921181
 588      0.20270819966781
 589    -0.0070400360474335
 590    0.0030155103148954
 591    -0.0014818135427308
 592    -0.00032164383619016
 593    0.00018794955249515
 594    0.0037227410708254
 595    -0.0042061545897536
 596    0.00096488713902034
 597    0.00065043557436224
 598    -0.00058292694094781
 599     0.011646981325736
 600     0.010972857349346
 601    -0.014206827420121
 602    -0.058482649326565
 603    0.0014030422429605
 604     0.046017629836796
 605    0.0033713244924661
 606    0.0017332679657746
 607      0.05670929994231
 608    0.0041483179991381
 609    -0.004130769512439
 610     -0.13175842699851
 611    -0.0099659201318973
 612    -0.0035722771440677
 613     -0.19007223771448
 614    -0.010631168173875
 615    0.0044743478906993
 616    -0.00027243937428084
 617    -0.00093761160653911
 618    0.0071890669719085
 619    -0.00096689501468195
 620    -0.0032136836933464
 621    0.00058781895455504
 622    0.0013790862586659
 623    -0.0049145435420849
 624    0.0018355641389312
 625    -0.00040601406077473
 626    0.0033155094152185
 627    -0.011238409222576
 628    0.0034962951336233
 629    8.8125406307697e-05
 630    0.0016955358485891
 631    0.0029339573622295
 632    -0.0068871197530995
 633    0.0066545303683634
 634    -0.00010761025616009
 635    0.00014158026240827
 636    0.00035775006316568
 637    -8.1864999766479e-05
 638    0.00010790766566566
 639    0.00070405050268671
 640    0.00024768895901732
 641     0.013865097302493
 642    -0.00059243752808143
 643    -0.0031336756451476
 644    0.0054512995436487
 645    0.0015622687723291
 646    0.0092122056803881
 647    -0.0037207247747356
 648    2.156092141059e-05
 649    0.0001669673918332
 650    0.00032315587505073
 651    -0.00012777779466293
 652    0.00013963267187458
 653    -0.0035290666247303
 654    -0.0017567142780703
 655    -6.8727778343749e-08
 656    0.00031810153389557
 657    0.00031663681751786
 658    -0.0020104229580261
 659    -0.00034802607155845
 660    0.0003266312801656
 661    8.3506508314785e-05
 662    0.00021800050236075
 663    -0.0020954867155633
 664    -0.015935679357307
 665    -0.00026204420070441
 666    -3.6447148410819e-05
 667    0.00070491900611164
 668    -0.0011694700042137
 669    -0.0036482192749965
 670    -4.1446581662352e-05
 671    -0.00015817166760463
 672    -3.8144049905053e-05
 673    0.0017097289929467
 674     0.004306740246092
 675    -0.00010055449744872
 676    -0.00032851905203784
 677    0.0003140591519615
 678    0.00011108808435443
 679     0.012249338186576
 680    6.5137001943576e-05
 681    0.00025094274007903
 682    0.00015011072288404
 683    0.00067467614555987
 684    -0.00049410092877673
 685    -0.011429958027201
 686    0.00030212675075183
 687     0.001909997778656
 688    0.0084256215337829
 689    -0.0013814580254018
 690     0.002441214534185
 691     0.013278149656013
 692    -3.2142080120998e-05
 693    8.2191050411417e-06
 694    -0.00019332029311159
 695    4.4618541829433e-05
 696    6.8893924525341e-05
 697    0.00026107742953399
 698    0.00029911037341125
 699    0.0046962980344712
 700    0.00045062794403786
 701    0.0015080940821577
 702    0.0018590727118926
 703    -0.00021561177362355
 704    -0.0026443540428009
 705    0.0051913781262958
 706    -0.00012404760099267
 707    -0.00019734269834938
 708    -0.00035170324472817
 709    7.4985999505268e-05
 710    -7.3843579423837e-05
 711    0.00098548916106974
 712    -0.007726264791807
 713    3.0922445290672e-05
 714    -8.5561454970314e-05
 715    0.00074717620025044
 716    0.0044955341028606
 717    0.0074582946595009
 718    -9.7519320084142e-05
 719    -2.5863448670333e-05
 720    0.00040652891605641
 721    -0.0058803782796584
 722    -0.0038213412235827
 723    5.7260568760668e-05
 724    0.00026447045400621
 725    0.00031559966606666
 726    -0.0016265494580468
 727     0.014721396988249
 728    -0.00047515643106957
 729    -0.0004279547284964
 730    -0.000440021078579
 731    0.00010574074551004
 732    0.0015982639873684
 733    5.7992969242145e-05
 734    4.8349422495759e-05
 735    0.00010927782152483
 736     0.001155385300236
 737    -0.0043430024466744
 738    0.00039570600054657
 739    0.00030263104539908
 740    -0.00014461238046874
 741    -0.00083019892633604
 742    0.0026533458896351
 743    0.0043212563771273
 744    0.0015848293940418
 745    -0.0022800712071022
 746    -0.0016563303840543
 747    0.00023164303192284
 748    -0.00070768055489819
 749    -0.00083730021090703
 750    -6.2417750234211e-05
 751    -1.4805347353546e-06
 752    0.00012091075948032
 753    -0.00012900601405811
 754    -0.00010109916555101
 755    -0.0017323958580031
 756    -0.0043721550729838
 757    -0.0050844637408344
 758     0.003393965382484
 759    -0.00069278214853653
 760    -0.0030917379218455
 761    -0.0022314380712945
 762    -0.0037878901532238
 763    0.0019641923264459
 764    -2.7166597291259e-05
 765    -0.00015139064659626
 766    0.00017140289750058
 767    -4.4249225136417e-05
 768    -0.00016528874915456
 769    -0.0011993101237687
 770    -0.0010706200924874
 771    -8.0066491038123e-06
 772    -0.00041396934359749
 773    -0.00020279944128144
 774    -0.00039074797011676
 775    0.0075734731324868
 776    0.00056750404702904
 777    1.0527277107152e-05
 778    -0.00056275205183299
 779    -0.0013863999232529
 780    0.00022853317985965
 781    0.00029989324335829
 782    -0.00046029895971551
 783    -3.2276834614821e-05
 784    -9.8452258294783e-05
 785    -0.0022173868813223
 786    2.0763434068078e-05
 787    -1.9019387114969e-05
 788    -0.00012707398558323
 789    8.3947720576215e-05
 790    -0.0014073042074335
 791    0.00010927923537395
 792    -4.7028894650517e-05
 793    -3.3701884428259e-05
 794    -0.00080538413657453
 795    -0.002356270364621
 796    1.456495321338e-05
 797    -0.00017154771123004
 798     9.68446199177e-06
 799    -1.6344491623349e-06
 800    0.00038185215893671
 801    -0.00055516300293363
 802    0.0035938539261135
 803    0.0013662809220816
 804    -0.00056486936489039
 805    0.00043770243037354
 806    -0.0010244978889395
 807    0.0020310433096471
 808    5.1369572107269e-05
 809    -5.3173763064559e-05
 810    3.1304883157251e-05
 811    -0.0003253529247008
 812    -0.00048287994601453
 813    9.016770091958e-05
 814    0.00038034125614031
 815    0.00020168262486788
 816    0.0093793025649992
 817    -0.00083855245441488
 818    0.00012677498022033
 819    -0.0032662893840213
 820    0.00099858798547944
 821    -0.0014995737036044
 822    -2.4364724837232e-05
 823    0.00039065535010866
 824    7.4729427715777e-05
 825    -0.00015701335382854
 826    0.00016833272679738
 827     0.003165898271276
 828    -0.0014550413941905
 829    0.00085033103717098
 830    -0.00089972722862907
 831    -0.00078658866351066
 832     0.000137487407643
 833    0.00018457790800404
 834    0.00082295306792624
 835    -0.00015449571696871
 836    -0.00018964266004482
 837    -0.0058452113112796
 838    0.0017198681877119
 839    0.0009962455421727
 840    0.0010303866665476
 841    0.00077360524841584
 842    -0.0034311741164883
 843    -0.0018661618574052
 844    -0.00015525749089747
 845    -0.00031179210960793
 846    0.0003488664638863
 847    0.0016501459480795
 848    -0.00096422187529032
 849    3.1314682894207e-05
 850    0.00012954764671592
 851    -0.00020037634426064
 852    0.00088669738233892
 853    0.0020378618711327
 854    0.00024129600887648
 855    0.00014495345288693
 856    3.3714224150905e-05
 857    0.0008664236006371
 858    -0.0021173616597504
 859    -0.0068954531945382
 860    0.0015885218721516
 861    -0.0018554034920133
 862    -0.0019082514143901
 863    0.0005850986783638
 864    -0.0016005019223289
 865    -0.0089155953366464
 866    0.00014375982075082
 867    0.00026914920502809
 868    -0.00030696921366054
 869    7.1900181546286e-05
 870    5.2970932515283e-05
 871    0.0021528269295182
 872    0.0042739391444907
 873     0.014386215686043
 874    0.00051500164290327
 875    -0.0037273429044152
 876    0.0037475134477209
 877    0.00019005908578449
 878    0.0013220188506033
 879    -0.009235673676832
 880    1.0563527002001e-05
 881    -0.00048739463290422
 882    0.00027902878626865
 883    5.5116683350059e-05
 884    0.00017390517198506
 885    -0.0045202512585006
 886    -0.012430707391011
 887    0.00046058846254464
 888    -0.00087168298583001
 889    0.00045262357757101
 890    0.0049445264962295
 891    0.0017182079389654
 892    -0.0002723989105804
 893    0.00055041861423687
 894    -0.00011847093358337
 895    0.0019554685615858
 896    -0.0086291074646677
 897    -0.00015495647370338
 898    -0.00036532828545322
 899    -0.00099167779644151
 900    -0.0007865371519819
 901    0.0042714482400872
 902    0.00011078531337309
 903    5.7568674837267e-05
 904    -9.0080785334065e-05
 905    0.0032222555735909
 906    0.0076256756930362
 907    9.6906263919705e-05
 908    -0.00089937045096405
 909    0.00013278864987527
 910    -0.0024974549887101
 911    -0.0027896691191676
 912    -6.8575408547342e-05
 913    0.00050002775619194
 914    0.00013952765736688
 915    0.0014016257656159
 916    -0.0051568387604951
 917    -0.0024780126774975
 918    -0.003701149367185
 919    -0.0025533975962367
 920    0.0032676542734845
 921    -0.0043370470035168
 922    0.0010848345455418
 923    -0.0011845058259069
 924    -1.871794392162e-06
 925    0.00032079474592947
 926    0.00017474146899784
 927    -1.099308654715e-05
 928    -0.00033503572442029
 929    0.0011115260054615
 930    0.0041148811130479
 931    -0.0066605356980924
 932    -0.0045048538959322
 933    -0.0019269847918139
 934    0.0024471491325535
 935    -0.0032238940505207
 936    -0.0020368484945807
 937     0.001735017564684
 938    6.8086221607351e-05
 939    0.0004230990004402
 940    0.00021052798504746
 941    -0.0001147884739683
 942    -0.00046317023354075
 943    0.0036194799486738
 944    -0.0014190594623123
 945    -0.00054795776560562
 946    -0.00027104794392384
 947    0.00043661554171009
 948    0.0033498641011684
 949    0.0055846122313013
 950    -0.00056460011575444
 951    -0.0006368851931274
 952    0.00014789162844367
 953    0.0042989210646964
 954    0.0052056731528965
 955    -0.00072044725642862
 956    -3.9778029373227e-05
 957    0.00053917396588085
 958    -0.00014897085018702
 959    -0.0008933959270512
 960    -0.00016387873565682
 961    -0.00015454219827151
 962    -9.9130604070033e-05
 963    0.0014995184168167
 964    0.0054017937041137
 965    -0.0001843084167983
 966    5.8809165485857e-05
 967    -8.6387913054423e-05
 968    -0.00052697268464275
 969    -0.00060573413023783
 970    -0.00018979592402123
 971    -3.7311919684835e-05
 972    0.00018795784729965
 973    0.0015062969120104
 974    -0.0035641107263571
 975    -0.0086598495176935
 976    0.0031266333669689
 977     0.003950062069747
 978    0.00064160008045009
 979    0.0015951357223495
 980    0.0053876401240128
 981     0.011905338381342
 982    -6.4103423415385e-05
 983    -0.00018898317135371
 984    -0.00030214909922683
 985    -5.8650691054704e-05
 986    0.00026898300271236
 987    0.00050508724911395
 988     0.000755957188211
 989    0.0019495476956721
 990    0.0022461669419898
 991    0.0046510016931472
 992    -0.0030196247279505
 993    -0.0015007817953089
 994    -0.009870129692483
 995    0.0090881519421797
 996    -0.00011556817932423
 997    5.1198675659053e-05
 998    -0.00010402053923627
 999    2.7729111612116e-05
 1000    -0.00015136443795937
 1001    -0.0030696149620943
 1002    -0.015331143722279
 1003    0.00062119041489447
 1004    0.00032109065216571
 1005    -0.00050249237572424
 1006    -0.0028265535746634
 1007    -0.0055490783146073
 1008    9.7080826008196e-05
 1009    -0.00060311141271342
 1010    0.00018208254111494
 1011    0.0022062244779196
 1012    0.0074758017431912
 1013    -3.5468102692717e-05
 1014    -0.00022552790205538
 1015    0.00012253735468829
 1016    -0.0026070257970738
 1017    0.0069979998899527
 1018    0.00015875272838216
 1019    -2.509542876838e-05
 1020    0.00058952514570719
 1021    0.0046032641099645
 1022    0.0020363491538242
 1023    -3.4651182654779e-05
 1024    -0.00014728645956549
 1025    -0.0002785071005514
 1026    -0.0012537230006218
 1027     0.012585726016883
 1028    -0.000146733844618
 1029    -0.00016796861107788
 1030    -0.00013162223320122
 1031    -0.00055901010952902
 1032    0.00074042384281031
 1033     0.011809736903582
 1034    -0.001252329036015
 1035    0.0013233411177861
 1036    0.00085918115296596
 1037    0.0042004230410013
 1038    0.0043922106644944
 1039    -0.0032829904069491
 1040    -4.5824929602977e-05
 1041    4.1961565741233e-06
 1042    0.00038520646123153
 1043    -6.4909462991423e-05
 1044    -0.00032875198217007
 1045    -0.00079886578897111
 1046    -0.0013463877141498
 1047    -0.0027683486755985
 1048    -0.001637839701984
 1049    0.00075062115692921
 1050     0.001589570946274
 1051     0.001376518140946
 1052    -0.00038212045305065
 1053    -0.0010650237378789
 1054    -2.7515816958822e-05
 1055    -0.00010579267861917
 1056    -0.00025414284101757
 1057    -5.8030517460971e-05
 1058    0.0003769046741294
 1059    -0.0013707761620809
 1060    0.0056544480134017
 1061    9.2106943676954e-06
 1062    5.2130040251621e-05
 1063    -0.00066542053480995
 1064    0.0042836966286016
 1065    -0.0054468943921228
 1066    -0.00047376949387557
 1067    -0.00032978221567057
 1068    0.0010852344761125
 1069    -0.00046810461856742
 1070    0.0028569169561503
 1071    0.00030739486652666
 1072    0.00015957097125052
 1073    9.6478814567247e-05
 1074    -0.00044115098619025
 1075    -0.0049588438638635
 1076    0.00034201585220358
 1077    -0.0001182188263403
 1078    -5.4437387586511e-05
 1079    0.00021172314341249
 1080    -0.0077690246326011
 1081    0.00016882895190637
 1082    -0.00034470305249893
 1083    -0.0009754330472494
 1084    -0.0017786187709397
 1085    -0.0058624150344071
 1086    -0.00038999375446849
 1087    0.00018147626149128
 1088    0.00075773827636847
 1089    0.0009106652852437
 1090    -0.0020904030329042
 1091    -0.0073132884512607
 1092    -0.0088103408147382
 1093    0.00037983269171958
 1094    -0.0014690850355113
 1095    -0.011300069385377
 1096    -0.0047590909123649
 1097    -0.0086720283580084
 1098    -9.6417368736752e-05
 1099    -0.00032511137262143
 1100    0.0002817985572476
 1101    -0.00022025605041425
 1102    -0.00012250233089185
 1103    0.00055749059705786
 1104    0.0011438043030401
 1105    0.0023702639699976
 1106    -0.0038911105816245
 1107    0.0060856024213038
 1108    0.0019871163398806
 1109    0.0018266131302503
 1110    -0.011632207722869
 1111    -0.0046074633012802
 1112    -0.00014637314259027
 1113    -0.00018808369443386
 1114    -9.5371739723815e-06
 1115    -6.2346814933399e-05
 1116    0.00022823431818602
 1117    -0.0012831058593427
 1118    -0.020700763657211
 1119    -0.00078015162009033
 1120    0.0003344603217993
 1121    0.00055137816835258
 1122     -0.00385055191636
 1123    0.0015664190335277
 1124    -0.00022944501962951
 1125    -0.00040759609003709
 1126    -0.00029786012649844
 1127    0.0036619232033837
 1128       0.0101292638331
 1129    -7.1248881941079e-05
 1130    -0.0002233173614903
 1131    -8.7425762079173e-05
 1132    -0.00079929475469612
 1133    -0.0051435012903056
 1134    0.00016807109372745
 1135    0.00031792496413819
 1136    -0.00012227494324424
 1137    0.0046473043526256
 1138    0.0052958460250352
 1139    -8.0783348454058e-05
 1140    -0.00019851462696394
 1141    -7.6346681394892e-07
 1142    -0.004389516026438
 1143     0.015379108143847
 1144    0.00030630954218183
 1145    -0.00043778830791492
 1146    0.0001118303283615
 1147    -0.0020202923929467
 1148    0.0056759009226639
 1149     0.011505423880794
 1150    -0.0038146342128635
 1151    0.0042579902012565
 1152    0.0038875289440448
 1153    -0.00096114367395362
 1154    -3.7378069655772e-05
 1155    0.0010815221105309
 1156    -8.4878248917545e-07
 1157    -0.00021487162467828
 1158    0.0002526148237302
 1159    -2.6713129073913e-05
 1160    -0.00023613594502359
 1161    -0.0031693793805696
 1162    -0.0089531645243805
 1163    -0.00045137877076888
 1164    -0.0045704211433932
 1165    0.0046977125000607
 1166    0.0046299857495056
 1167    3.622906883871e-05
 1168     0.001706920587216
 1169    -0.00017202387882305
 1170    -3.1633202678254e-05
 1171    -0.0003499300606333
 1172    0.00040283325125606
 1173    -6.0764227145779e-05
 1174    -0.0003966234012424
 1175    -0.0024473633156742
 1176    -0.0026643213991731
 1177    -0.0009234156904474
 1178    0.0011467884846032
 1179    0.00017552834080781
 1180    -0.0019408875172942
 1181    -0.00011074796498797
 1182    -0.00095281338177992
 1183    0.00011078300166853
 1184    0.00091124905087135
 1185    -0.0023348794358025
 1186    -0.0021541162469878
 1187    -0.00010343015684348
 1188    0.0010766244997595
 1189    0.00092701108455971
 1190    -0.00054132266375643
 1191    -0.0056078211112103
 1192    -0.00028451979350418
 1193    6.9589285307511e-05
 1194    1.9407631152665e-05
 1195    -0.00064208157432931
 1196    -0.0057340323295087
 1197    -2.3564237510418e-05
 1198    4.8257385815738e-05
 1199    0.00028728821253311
 1200    -0.0005195393810277
 1201    -0.0043754028364883
 1202    -5.969147862089e-05
 1203    0.00029544688659969
 1204    6.512720055815e-05
 1205    0.00029610339315341
 1206    0.00034984073549286
 1207    -0.0052029542835537
 1208    0.0011056640622393
 1209     0.001789700771806
 1210    -0.0041833431426946
 1211    -0.0015698308761586
 1212    -0.00044885185772461
 1213    -0.00079938720806123
 1214    -0.00040342328009052
 1215    -1.887353033417e-05
 1216    0.00037802145071024
 1217    -0.00020747336239298
 1218    -8.8738769169047e-05
 1219    0.00071854734003995
 1220    0.0015601979427833
 1221    0.0044743944846826
 1222    0.00028220416089554
 1223    -0.0018278570035536
 1224    -0.0090846487058124
 1225    0.0021580412510574
 1226    0.0028089634749523
 1227    0.0021012760419098
 1228    -0.00014197254733672
 1229    0.00045300488905451
 1230    -0.00021231247446739
 1231    -8.99712005886e-05
 1232    -8.2910114910627e-05
 1233    0.00053884054824387
 1234    0.0005917646846226
 1235    0.00022804869154334
 1236    -8.8837135263768e-05
 1237    -0.00089727123738705
 1238    0.0025243050762512
 1239    -0.0034197040389542
 1240    0.00097930327336045
 1241    -0.00099600790786399
 1242    -0.00086167764169859
 1243    -0.0072978468273061
 1244    -0.00094408770992401
 1245    -0.00076725980356142
 1246    0.00097977968462754
 1247    -0.00095032093437994
 1248    -0.0034204426579844
 1249    0.00027104097486073
 1250    -0.00038591439496367
 1251    -0.00039959968110417
 1252    0.00022325733452953
 1253    0.00087211512197035
 1254    0.0034769578545142
 1255    -3.7357059646574e-05
 1256    0.00018136481240142
 1257    -0.00028224948846002
 1258    0.0017059808687968
 1259    0.00080981079061242
 1260    0.00015656271012522
 1261    0.00010799914313854
 1262    -0.00010421866395795
 1263    0.0016897157176267
 1264    -0.0041683856511041
 1265    -0.0096671846932862
 1266    0.00035558325716687
 1267    0.0052766732540966
 1268    -0.0012752919215641
 1269     -0.01071716216554
 1270    0.0050216697310551
 1271    0.0021467961418592
 1272    7.7689910152674e-05
 1273    -0.00011404959894271
 1274    -0.00036055317907576
 1275    -0.0001040482784401
 1276    0.0002949283401488
 1277    0.00062004677160207
 1278    0.0012714580731814
 1279    0.00073263061307445
 1280    0.0030669191081607
 1281    0.0059178151624691
 1282    -0.0023502500070577
 1283    -0.0064810885068178
 1284    -0.011455881867455
 1285    0.0038871835422714
 1286    1.4286084729015e-05
 1287    0.00017156294595316
 1288    3.8044670304798e-05
 1289    -2.8460262332044e-05
 1290    2.8501888879648e-05
 1291    -0.00066090424588938
 1292    -0.0027189417329506
 1293    -6.6329624822184e-05
 1294    -0.00056519024030122
 1295    0.00010599845295049
 1296    -0.0027054884505657
 1297    -0.016624876017205
 1298    0.00080508290907352
 1299    0.00038202186309648
 1300    -0.00068005415647256
 1301    0.00062719610584003
 1302    0.0080339349578954
 1303    -0.00025371460560348
 1304    -0.00015803117398835
 1305    4.6217235310538e-05
 1306    -0.0035497481641543
 1307    0.0083963875996799
 1308    -0.00055036421135701
 1309    -0.00015572789737696
 1310    -0.00037955041113897
 1311    -0.00075559116477635
 1312     0.012296411610751
 1313    -2.4662219589519e-05
 1314    3.7841405054869e-05
 1315    0.00010001592561989
 1316    0.0048931780364157
 1317      0.00230201926922
 1318    0.00039947498391612
 1319    -0.00015764646618739
 1320    7.9168039983317e-05
 Sym= A
 Ene=               0
 Spin= Alpha
 Occup=    0.00000
   1     0.023212180757585
   2    0.0042594728624265
   3    -0.033132898392982
   4    -0.043763697797946
   5    0.0029087242346144
   6    -0.0089763988886779
   7    -0.063182807588734
   8    0.0030227437658532
   9    -0.0094191720384641
  10    -0.066628504524735
  11    -0.0099660142173597
  12     0.027910660996965
  13      0.19224774138161
  14     -0.01154848253071
  15     0.032909879629494
  16      0.24328672741134
  17    -0.018336505420082
  18    0.0042227421861277
  19    0.0040225511644174
  20    0.0015037620390795
  21    0.00048159110972542
  22    0.0069213548718671
  23    -0.00083068401469841
  24    -0.00050411074484573
  25    -0.00097656553979214
  26    -0.00039143701522807
  27    -0.0026996620286498
  28    -0.006151364745128
  29     0.010892010047372
  30     0.018826374338845
  31    -0.0055921144214647
  32    0.0013860457600694
  33    0.0086838200440041
  34    -0.0070982987404686
  35    0.0015518234928652
  36     0.010296632865565
  37     0.020764361122029
  38    -0.005150045354013
  39    -0.032347834327807
  40     0.018070345761641
  41    -0.0027856312364099
  42    -0.023723529665723
  43    -0.0012203819619175
  44    0.0017741090026151
  45    -1.355568398235e-05
  46    0.0014522853510541
  47    0.00023423660373969
  48    0.00083978894228352
  49    0.00089652421196626
  50    0.00068255978611438
  51    -0.00020876123419233
  52    9.7618045649891e-05
  53    0.0052490795232219
  54    0.0098541464790996
  55    -0.026351487340932
  56    -0.0057552490320139
  57    -0.0014023030502709
  58    -0.0058888033383785
  59    0.0084205125488576
  60    -0.0018176998321725
  61    -0.0078626146445812
  62     0.010319628063632
  63    0.0049692495370444
  64     0.023124917333383
  65    -0.030283763181993
  66    0.0052972074458228
  67     0.018150742548294
  68      -0.0271536726898
  69    0.00014891297367838
  70    0.0004213455283325
  71    0.0025825936143183
  72    0.00069688725442318
  73    -0.00046387957568159
  74    0.0016624959633688
  75    -4.9169335707744e-05
  76    0.0013813692458456
  77    0.0014221931421538
  78    -0.00021334643364624
  79     0.044863458735822
  80      0.09241925966755
  81     -0.22679241293488
  82     -0.11435938921521
  83    0.0083548424600502
  84    0.0021360260213223
  85     0.014728570843766
  86    0.0097252149677293
  87    0.0022417518213872
  88     0.019706997281475
  89    -0.031899061003056
  90    -0.0088204933316702
  91    -0.055079238020519
  92    -0.018969344629398
  93    -0.0034919939669362
  94    -0.059032078679693
  95    -0.012317615360788
  96    -0.0036670638753354
  97    -0.0014030969719688
  98    -0.00060981024991247
  99    0.00085603644093333
 100      -0.0101105419387
 101    -0.0035098334608421
 102    -0.0024594855644591
 103    0.00093074897883951
 104    -0.0005210029946171
 105    0.00069475073769087
 106    0.0032027686007234
 107    -0.0085554069818358
 108    0.0010301893327588
 109    0.0029230688453614
 110    0.0014796839897313
 111     0.012974456577342
 112    0.0036614513775239
 113    0.0018552608881899
 114     0.016223687658979
 115    -0.011902289466189
 116    -0.0053801864284538
 117    -0.045515464295716
 118    -0.0032719490356222
 119    -0.004740005091082
 120    -0.044832480297399
 121    0.00018560497663164
 122    -0.0035626465043871
 123    0.00030397522841561
 124    -7.3438523685685e-05
 125    -0.00055853388577235
 126    0.00018421386290974
 127    -0.0031389352757547
 128    6.5746454017442e-05
 129    -0.00072243946581971
 130    -0.00010917636187494
 131    -0.0023446163105303
 132    -0.0035163102788072
 133    0.0061220938157332
 134     0.011548822484382
 135    0.0001803299378702
 136    -0.0017069173792644
 137     0.011281732031269
 138    0.00020461866842998
 139    -0.0023799582537392
 140     0.014192085242505
 141    -0.00047183909067481
 142    0.0050866500320071
 143    -0.039634603460225
 144    -0.00082573314448197
 145     0.013244754263027
 146    -0.040243627104273
 147    -0.00022297332917738
 148    0.00079886476468965
 149    -0.0031526377312098
 150    -0.0005318221412284
 151    -3.5103919583247e-05
 152    0.00072686806236798
 153    -0.00022151561427329
 154    -0.0028695770080741
 155    7.9705743370982e-05
 156    4.592482106925e-05
 157    -0.021932493830514
 158    -0.041140115625687
 159     0.097663236433455
 160     0.061279005336958
 161    0.0067200754187284
 162    0.0069391072575426
 163     -0.02710966052872
 164    0.0084349940939904
 165    0.0089209572964094
 166    -0.036666039181511
 167    -0.024102606447898
 168    -0.024509822919753
 169     0.098743989100274
 170     -0.02205508410676
 171      -0.0269146959817
 172      0.11308896416642
 173    0.0043844021592034
 174    -0.0022969322313366
 175    -0.0016160971941049
 176    0.00026844323941291
 177    0.00079313659210979
 178    0.0048252317691509
 179    -0.0002646173380723
 180    -0.0026298860497614
 181    -0.0006980656351809
 182    -0.00075049340593379
 183     0.040941179938252
 184    0.0079566104368316
 185    -0.061954103455135
 186    -0.082983277912515
 187     -0.11762696698307
 188     -0.08658579800933
 189     0.085851944272858
 190     -0.12369772165098
 191    -0.090722166986476
 192     0.090386672044436
 193      0.36553660396239
 194      0.26961444798446
 195     -0.26640010504981
 196      0.48193756790774
 197      0.36387162592972
 198     -0.35734458582841
 199    -0.0058067869767992
 200    -0.0072007132625506
 201    -0.0087302625148061
 202      -0.0129325778755
 203    0.0077467901902168
 204    0.0014016550180695
 205    -0.00039048258123937
 206    0.00075152430918112
 207     0.003494771119017
 208    -0.00024565213523396
 209     0.063318399347948
 210      0.13154904371357
 211     -0.31928175100125
 212     -0.17115263733295
 213    -0.016635179631333
 214    0.0016435275266541
 215    -0.0036973082537214
 216    -0.022206345022286
 217    0.0019980680616217
 218    -0.003993878967271
 219     0.061907620146114
 220    -0.0078408153975335
 221     0.014031164235885
 222     0.064758488423103
 223    0.00070602256589142
 224    0.0041180842207309
 225     0.008181821127548
 226    -0.0010165398864233
 227    -0.00070107681361207
 228    -0.015172013712859
 229    0.0024811065441491
 230    0.0080296682300016
 231    -0.00088054699371723
 232    0.00062197794351074
 233      -0.0119220662712
 234    0.0022959841193695
 235     0.030278844968332
 236     0.061350516404008
 237     -0.14907636911035
 238    -0.079596375187306
 239     0.011052377688337
 240    -0.033714722850435
 241    -0.0070360909332327
 242     0.013601261500245
 243     -0.04631790658017
 244    -0.0084743343616631
 245    -0.041761321563412
 246      0.13294052208911
 247     0.027010904773217
 248    -0.033835820714955
 249      0.13438998271943
 250     0.017914833681624
 251    0.0033568392796772
 252    -0.00010845431578691
 253    -0.002630130348858
 254    0.0056138980861375
 255    0.0040419495399076
 256    0.0045106860348342
 257    -0.00097739295095241
 258    -0.0010716396666354
 259    0.0081473248573226
 260    0.0022980839576818
 261    -0.028660488537211
 262    -0.054917452522292
 263      0.12549432416782
 264     0.096318166406171
 265     0.024801175747588
 266     0.019073219448596
 267     0.031334052306521
 268     0.030666195327103
 269     0.024380336575668
 270     0.043042857638994
 271    -0.089449081262202
 272     -0.06929594726669
 273      -0.1160836527986
 274    -0.082950758365367
 275    -0.068732793451843
 276     -0.14476848261239
 277    0.0056877958676626
 278    0.0065228823032829
 279    0.0056924627495449
 280    -0.00049585144079119
 281    0.0022029884561503
 282    0.0061949815817892
 283    0.0080682750960034
 284    0.0051523166305468
 285    0.00072883375267592
 286    -0.0024541052910138
 287    -0.038993365620018
 288     -0.07493023972065
 289      0.17311814904144
 290      0.12449907932621
 291    -0.043622385599269
 292     0.019069050211549
 293    -0.021076622324733
 294    -0.059890641268409
 295     0.023706269255829
 296    -0.026015670010251
 297      0.16258829426085
 298    -0.069052682122798
 299     0.076136008609225
 300      0.19535418021684
 301    -0.064457931901776
 302     0.070073466377953
 303    -0.004410338190042
 304    0.0056312633177703
 305    -0.0022226486072356
 306    0.0069508198001189
 307    -0.0056115992323389
 308    -0.0033183014148611
 309    0.0065976122831917
 310    0.0028725504933866
 311    0.0076818873326301
 312    -0.0051506710017517
 313    -0.021915052673435
 314     -0.04083878013557
 315     0.087705133119407
 316     0.083581349157498
 317     0.025117009049051
 318    -0.021997797286583
 319    -0.021276348322099
 320     0.030924392902392
 321    -0.030553201678683
 322    -0.026854859093568
 323    -0.089857228100551
 324     0.079139461049278
 325     0.076340695500295
 326    -0.084324957873161
 327      0.10887682978173
 328     0.074971496808383
 329    -0.00092284988037227
 330    -0.0027333094684941
 331    0.0052406777791731
 332    -0.0021903452783303
 333    -0.0059373030987941
 334    -0.0021652801655087
 335    0.00025618835428256
 336    0.0065724419145142
 337    -0.0029541787746306
 338    -0.0083960900813701
 339     0.005698470412473
 340    0.0011215291477473
 341    -0.0083359549716422
 342    -0.011346578556834
 343    -0.010400224041207
 344    0.0002960951704236
 345    -0.010397245159059
 346    -0.010927158218487
 347    0.00034204994630687
 348    -0.010807184838909
 349     0.032743950096053
 350    -0.00086551248465004
 351     0.031555850348846
 352     0.043559860920106
 353    -0.0026611675488431
 354     0.034776274839814
 355    -0.0014458159375009
 356    -0.0025271784666045
 357    8.8751209573919e-05
 358    -0.0010502804876589
 359    -0.0002462286881247
 360    0.00030738596665713
 361    0.00087342636405145
 362    -0.00042394120976288
 363    0.00058572614163338
 364    0.00017559026338818
 365    0.0030866022031601
 366    0.0058996303244292
 367    -0.013524237339963
 368    -0.0093927577631671
 369    -0.0042380712709346
 370    0.00056708376335256
 371    0.0010419344684449
 372    -0.005698615198247
 373    0.00073140367096216
 374    0.0014507993462209
 375     0.015465946754966
 376    -0.002075481503275
 377    -0.0033386420979581
 378     0.017006666162127
 379    -0.001780612154088
 380    -0.0052858976522225
 381    0.00033171758188093
 382    0.00043656852552713
 383    -5.7709290734467e-05
 384    -0.00050075682849035
 385    0.00026297071219706
 386    0.00037337450027554
 387    0.00013015752410195
 388    1.2490704408274e-05
 389    -0.00088000650214604
 390    -9.955438748374e-05
 391    -0.000136114097537
 392    -9.7209096348627e-05
 393    0.00021447523224571
 394    0.0012819946956708
 395    0.0015781766468534
 396    0.00014770488901375
 397    0.0016060651536405
 398    0.0019218997593561
 399    0.00017390776627797
 400    0.0021017582731931
 401    -0.0058806914701469
 402    -0.00035569556330635
 403    -0.0058275327955573
 404    -0.0047532687566719
 405    -0.001975842980273
 406    -0.0057491549826817
 407    -6.8747913014711e-05
 408    7.9726556901099e-06
 409    0.0005416489076074
 410    -0.00020783373700187
 411    0.00051252612772491
 412    -9.0203201240949e-05
 413    -1.0583055276932e-05
 414    0.00029423046810202
 415    0.00018867044561051
 416    0.00048224516620708
 417    0.0093532478722265
 418     0.018870476619465
 419    -0.046958640806967
 420    -0.019867813197061
 421    -0.0099058374011054
 422    0.00055627681421507
 423    0.0039942222820274
 424    -0.012113263229754
 425    0.0003098279640145
 426    0.0052123447353185
 427     0.035966005723472
 428    -0.0022248535906024
 429     -0.01529335700269
 430     0.033113479397065
 431    0.0025352231440107
 432    -0.013623195306255
 433    -0.00091778337437005
 434    0.0045328727660108
 435    -0.00014030629839844
 436    -0.00055854894604344
 437    0.00015846578592687
 438    -0.0033948079910193
 439     0.002992535771911
 440    0.00015938995024308
 441    0.00053710742773948
 442    -0.00096570785806798
 443    -0.00022480513541287
 444    -0.00020964797992234
 445    0.00054987573822307
 446    0.00057996463488175
 447    0.0014209158688027
 448    -0.0001302674197861
 449    0.0012319610017356
 450    0.0017049432813149
 451    -0.00022222575562018
 452    0.0015330593306489
 453    -0.0050927798990044
 454    0.00039185682319857
 455    -0.0044222590870899
 456    -0.0042552167127648
 457    0.0015411428704698
 458    -0.0040829155580664
 459    -0.00016708013743205
 460    -0.00010944596939088
 461    -0.00040512558941958
 462    -0.00012317930581807
 463    -0.00025440151593082
 464    0.00021163703940293
 465    0.00014250429239244
 466    -0.00021081026401147
 467    -5.3754854514735e-05
 468    -0.00059232639344383
 469    -0.0033168820111532
 470    -0.0059487233220965
 471     0.014244508749986
 472    0.0083576825824729
 473    0.0013262740036927
 474    -0.00038911705595483
 475    -0.0039303142009545
 476    0.0015599984299965
 477    -0.00048047069783843
 478    -0.0053554266171704
 479    -0.0049455628231132
 480    0.0014969099952159
 481     0.014392289120375
 482    -0.0034658630521922
 483    0.00086449349584472
 484     0.016342551804633
 485    0.00087541269786556
 486    -0.00020507746147802
 487    0.00019486206475483
 488    2.4654110307267e-06
 489    -5.7278661934302e-05
 490    0.00033510948589022
 491    -0.00066079772982942
 492    -0.0001231586951052
 493    -4.9060695645149e-05
 494    -1.335600898097e-05
 495     0.037421327667851
 496    0.0070059068086007
 497     -0.05834407088434
 498    -0.058473993607985
 499     0.091237435433602
 500    -0.0022362019208971
 501     0.019291267878148
 502      0.09596310324132
 503    -0.0025084034113807
 504     0.020123127270952
 505     -0.27640624064145
 506    0.0074612578770658
 507    -0.056945859287321
 508     -0.35344884113518
 509    0.0045415359576397
 510    -0.080907035610242
 511     0.008827480633571
 512    0.0037514321682205
 513    -0.00040232114759168
 514    -0.017663374965781
 515    -0.0048929213740728
 516    -0.0033300835192777
 517    -0.0012801855302816
 518    0.00018175193188028
 519    0.0073379884515623
 520    0.00085035223843279
 521    -0.030306178234547
 522    -0.055925801245392
 523      0.13206763096496
 524     0.086272474566438
 525     0.038113948629651
 526    0.0078580346032796
 527    -0.010249326287924
 528     0.051542272967412
 529     0.010270868963172
 530    -0.012532130439588
 531     -0.13778124508938
 532    -0.027636587357203
 533     0.036350688220586
 534     -0.16106370744009
 535    -0.032013244008182
 536     0.032027484198102
 537    -0.002861189521254
 538    -0.0036852767077114
 539    -0.00087370615242543
 540    0.0056798353501662
 541    0.0020386685724641
 542    -0.003977556641752
 543     0.000351287861952
 544    0.00083375900049107
 545    0.0053258532041418
 546    0.0026344629071177
 547    0.0038744954983721
 548    0.0074787627777419
 549    -0.020851132790843
 550    -0.00066148246278732
 551    -0.012733552649082
 552    -0.0047189610245087
 553    -0.0025347538388156
 554    -0.015639189128598
 555    -0.0061605578579534
 556    -0.003101447249354
 557     0.045855263587549
 558     0.019039966012228
 559    0.0089472139768026
 560     0.042372976652811
 561      0.01040672659626
 562    0.0089795092251638
 563    0.00026383693940717
 564    0.00082165844364476
 565    -0.000743471572472
 566    -2.5805399501021e-05
 567    -0.0039557955477683
 568    0.00074728199226199
 569    -0.0007454943758624
 570    -0.00061119391289815
 571    0.0023875592504284
 572    -0.0025206268842149
 573    -0.0056293253523686
 574    -0.0085142361913697
 575     0.018090358431966
 576     0.021821043765764
 577    -0.016949421444316
 578    0.0014637440551265
 579    0.0039515880797861
 580    -0.020854077787143
 581    0.0019031060507333
 582    0.0058101960898869
 583     0.059620248774704
 584    -0.0048473069932144
 585     -0.01285458422054
 586     0.056756199151736
 587    -0.0065619541665847
 588    -0.028584129300524
 589    0.00069947019014738
 590    -0.0048896996473946
 591    0.00039644674983997
 592    0.00051298559927886
 593    -0.00037639930383836
 594    0.00056992241198812
 595    -0.0034866318591376
 596    0.00018602477945493
 597    -7.3377771448412e-05
 598    -0.00069827073767701
 599    -0.0018785249690208
 600    -0.0019927759690191
 601    0.0029065302897563
 602     0.009203523190856
 603    -0.016103203391912
 604    -0.0017198081264687
 605    -0.0040357204533157
 606    -0.020376076384155
 607    -0.0023309243747335
 608    -0.0047614777415581
 609     0.056712050939828
 610    0.0042934887241892
 611     0.014011373142954
 612     0.058354953343771
 613     0.015151178860104
 614      0.01261512000797
 615    -0.00046556773760571
 616    0.00028155061448572
 617    0.00096210831453929
 618    -0.0011226287848773
 619    0.0046014402214409
 620    9.884458644612e-05
 621    -0.00041156177233838
 622    0.0010030183177781
 623    0.0007399745146518
 624     0.004085708727896
 625    -0.00055040061558837
 626    0.0021730526936191
 627    0.0074487774866968
 628    0.00026926281842512
 629    -8.923541339473e-05
 630    0.00041931229724055
 631    -0.00096246770373478
 632    -0.0012039584506247
 633    -0.00023900380773644
 634    0.0001273556270636
 635    2.8585316473528e-05
 636    -9.3434333424667e-06
 637    2.9093147862711e-07
 638    8.2038746159712e-05
 639    0.00058545344669135
 640    0.00038998798671504
 641     0.010924935224859
 642    0.0031415052985052
 643    0.0017706323011725
 644    -0.0064683913106396
 645    -0.00081578176026015
 646    0.0035617107025333
 647     0.010589704330675
 648    0.00027189317038324
 649    -0.00017078911151008
 650    0.00024601148930122
 651    0.00026308229756428
 652    -0.0004000072201756
 653     0.004527316913176
 654    -0.011824128067328
 655    0.00016805662364957
 656    0.00020243213053676
 657    0.0013074025846373
 658    0.0033451259185929
 659    -0.0043537795521832
 660    0.00013501879976575
 661    0.00016563781467588
 662    0.0013080105926245
 663    -0.0064598497581326
 664     0.002666718172801
 665    0.00011856815203341
 666    0.00028062804649304
 667    -1.2806182250636e-05
 668    0.00010393759095159
 669    -0.0046359116142408
 670    -0.00018873894959305
 671    -0.00033744498765031
 672    0.00019991183326101
 673    -0.00014394277516544
 674    -0.00096124409839113
 675    3.6017729813412e-05
 676    4.0086694627623e-05
 677    8.9289586495717e-05
 678    -0.00057150782942667
 679    -0.0014319941334197
 680    4.1516827514164e-05
 681    0.00019988129393887
 682    5.8329541541874e-05
 683    -0.0031630949525835
 684     0.006234899288469
 685     0.020207271304691
 686    -0.00066823749684688
 687    -0.0061569186155771
 688    0.0081221956411945
 689    -0.0015945080324567
 690    -0.007742630634705
 691    0.0075337863510633
 692    0.00022096620823038
 693    -8.4979758034273e-05
 694    -0.00020638184004576
 695    -1.900821129832e-05
 696    6.4966154309052e-05
 697    -0.0027563796502068
 698    -0.0077331383189288
 699    -0.0066256464524747
 700    0.0029865081589563
 701    -0.0032181059361492
 702    0.0034076527115476
 703    0.0020659731864966
 704    0.0021087025169772
 705    -0.0029465584761961
 706    0.00019078067974222
 707    -0.00025866744493359
 708    -0.00017628957001558
 709    -0.00012022429102222
 710    0.00051053703236072
 711    -0.0096590778247815
 712    0.0031358439952959
 713    -0.00013792342363819
 714    -0.00016363103486887
 715    -0.00032932785410859
 716    0.00019181020796211
 717     0.003200284008832
 718    -0.00033095749345498
 719    0.00017007649636436
 720    -4.5375528958761e-05
 721    -0.0027865695087012
 722    0.0053355294951417
 723    -4.7200499001859e-05
 724    0.00042990716788456
 725    0.0004206640043358
 726    -0.0030655140877101
 727    -0.0032455032773621
 728    -0.00015877717238866
 729    4.4475648848095e-05
 730    0.00020823042447215
 731    -0.0023338117057722
 732    -0.004702017429941
 733    -0.00012627674732117
 734    2.4831237942783e-05
 735    0.00023687845924225
 736    0.0037319563581652
 737      -0.0108732560381
 738     4.24178559987e-05
 739    0.00065655446574414
 740    -0.00068689664034116
 741    -0.00048890882761516
 742    0.0025714038827046
 743     0.007965236779814
 744    0.00035775948433161
 745    -0.0013758302844777
 746    -0.00039701271096193
 747    -5.4631538590945e-05
 748    -2.405347392976e-05
 749    -0.0014626606095956
 750    -4.186531624987e-05
 751    -1.8654607378746e-06
 752    3.2392765235098e-05
 753    -0.00011862090176902
 754    -7.4478754482818e-05
 755    0.00069907900000566
 756    0.0024816004150478
 757    0.0020471744239496
 758    0.0033908233307979
 759    0.0066091385466088
 760    -0.0021666628181539
 761    -0.0026047885869836
 762    -0.014688585900811
 763    0.00078580782329974
 764    -7.2844791633018e-05
 765    0.00042696847501513
 766    -3.8163507208678e-05
 767    -9.8500365746562e-05
 768    0.00012667592644892
 769     0.005077091580581
 770    -0.013179374858534
 771    0.00016185517528788
 772    -0.0013967584174055
 773    -0.0003660297451143
 774    0.0011792284170516
 775      0.01525152305361
 776    0.0005127655945047
 777    0.00051120860700893
 778    -0.00052572002775668
 779    0.0040670203457655
 780    -0.0065131796243534
 781    0.00035136454895593
 782    -0.0013956340670002
 783    -0.00021647763317523
 784    -0.0001152117895127
 785    -0.0026598365508997
 786    -2.7094107187982e-05
 787    -2.7804293998936e-05
 788    -0.00019040739314434
 789    0.00016807799194366
 790    -0.00099566048613825
 791    0.00013104639679294
 792    -0.0001711205129376
 793    -2.7287547024241e-05
 794    0.00049556047543293
 795    -0.003321769010538
 796    -9.5695882118396e-05
 797    -0.00025862533223843
 798    0.00019669911036612
 799    -0.00019736987502846
 800    0.00070212633970403
 801     0.005504821714294
 802    0.0004599743153809
 803    0.00097690492160524
 804    -0.00059960611431565
 805    0.0013670563043421
 806    0.00050917673152104
 807    -0.0028481500579061
 808    -4.3443366643154e-05
 809    -3.4356667066552e-05
 810    -0.00011390899078344
 811    2.8230840473167e-05
 812    0.00013794180155973
 813    0.00076994373012593
 814    0.0024493213064588
 815    0.0028033138883758
 816    0.0014091012186505
 817    -0.0015130094638378
 818    0.0004938876976022
 819    -0.0032097637263222
 820    0.0021837545751272
 821     0.001837767250411
 822    9.0221006499404e-05
 823    9.7289355480329e-05
 824    -3.677365604694e-05
 825    1.6404650319678e-05
 826    -0.00043113792796659
 827    0.0059898091269831
 828    -0.0058005702136694
 829    -0.0010979670712767
 830    0.00053299368251094
 831    0.00057837424189898
 832    0.0014649734259842
 833    0.0010895584350261
 834    -7.879929361946e-05
 835    0.0006032520362623
 836    0.00039802882074631
 837    0.0025128545359546
 838    -0.0013052862776572
 839    0.00014519273876505
 840    -0.00024612705674558
 841    1.1522699588785e-05
 842    0.0012750104572914
 843    -0.0021800583606326
 844    -0.00016618141168996
 845    0.00017111568374719
 846    0.00026796052373869
 847    1.6793464513677e-05
 848    -0.001027581213942
 849    -6.4723533224515e-06
 850    4.9624374234073e-05
 851    0.00011862810403524
 852    0.0008511586060854
 853    -0.0043884107708385
 854    2.8752816467399e-05
 855    1.7904275799987e-05
 856    -0.0001993261296626
 857    -0.0011694601695176
 858    0.00062842362476117
 859     0.006567104017509
 860    -0.0017474386037904
 861    -0.0015811064530562
 862    0.0019961031020684
 863    -0.0030491796309451
 864    -0.0020543775495095
 865    0.0044227370133809
 866    -0.00043374910117326
 867    0.00017388167029109
 868    -3.6562648161205e-05
 869    -0.00035506157428061
 870    0.00017528823627814
 871    -0.0024166600668878
 872    -0.009778195957476
 873    0.0061790101507819
 874    0.00071535791253959
 875    0.0057079867419513
 876     0.002722509815315
 877    -0.0070722348109699
 878    -0.0022818681327589
 879    0.00048488156351722
 880    0.00019114843258907
 881    0.00046104159532567
 882    -3.9430287854388e-06
 883    0.00017677870625852
 884    -0.000554379149994
 885    -0.004610228352843
 886    -0.0026638994553091
 887    2.5688448234092e-05
 888    -5.8426554380957e-05
 889    -0.00040886959102623
 890    -0.013198104944792
 891    -0.0092031779566613
 892    0.00024118892627091
 893    -6.2892333301666e-05
 894    0.00042624500535466
 895     -0.01010388063189
 896     0.012551184311312
 897    -0.00048566562027515
 898    -4.1928796222398e-05
 899    -0.00038395051214562
 900    0.00034040476001152
 901    -0.0030758152688689
 902    0.00031768001968582
 903    -0.00013206192287859
 904    -0.0003244516421346
 905    -0.0031281861083651
 906    0.00099938448218628
 907    -0.00018617373808189
 908    -0.00035937086495523
 909    -0.0005584149453825
 910    -0.0019221345445223
 911    0.00022646533749092
 912    4.9819188442185e-05
 913    3.1411806912523e-05
 914    0.00022038173546033
 915    -0.0015283202950527
 916    0.0010949224745384
 917     0.025215617198028
 918    -0.0029897941333554
 919    0.0018740041130783
 920    -0.00084215851102179
 921    -0.0066929958578613
 922    0.0051901670438476
 923    -0.0067043086006839
 924    -0.00027536826828094
 925    -0.00022347278355213
 926    0.00034072160258323
 927    0.00033953568988134
 928    2.5716446735056e-05
 929    -0.00091802529263433
 930    -0.0029292966052897
 931    -0.0053007103893466
 932    -8.2755154659192e-05
 933     0.003334716117531
 934    -0.0040180594399864
 935    0.0049979870292659
 936    0.00036693075786187
 937    0.0035911555142344
 938    -4.9112511484692e-05
 939    -1.8953901136547e-05
 940    -0.00013340101111882
 941    9.8560122798203e-05
 942    0.00011334357010082
 943    -0.0069645918051649
 944    0.0066793595940676
 945    -0.00099497242962902
 946    -0.00039823985019759
 947    0.00043402263284539
 948    -0.0046845449755514
 949    -0.0054999632288323
 950    -0.00015973740637902
 951    -0.00050843297701505
 952    0.00050117096299242
 953    -0.0034075385362567
 954    6.5103549510772e-05
 955    -0.00038565737393026
 956    -0.00026251304516975
 957    0.00059828759978659
 958    0.0044156461731355
 959    -0.013429605694348
 960    -0.00062499012899897
 961    0.00026539132416239
 962    -0.00010870034910557
 963    -0.00015685086910566
 964    0.0012999763237168
 965    -0.00029557580294649
 966    8.587717780915e-05
 967    -0.00016147276857648
 968    0.0021528937963714
 969    -0.013567743584394
 970    -0.00039280982643312
 971    -0.00028093325554179
 972    3.6761807906521e-05
 973    -0.0012953593398083
 974    0.0033766478527726
 975    0.0077044361925066
 976    -0.0027343728330689
 977    -0.001711827535149
 978    -0.00077912353882323
 979    -0.0018545284568043
 980    0.00090243378433654
 981    -0.0036816096250022
 982    6.5031274449308e-05
 983    9.6312473576071e-05
 984    3.9623285414557e-05
 985    2.4829824121909e-05
 986    -8.569236728574e-05
 987    -0.0001262269211534
 988    0.00030381915409528
 989    -0.0024630754581747
 990    -0.00028183205104702
 991    0.00094286693588046
 992    0.00059668321666102
 993    0.00043939463647791
 994    -0.0014511062109033
 995    -0.00027913738171322
 996    1.4905409741529e-05
 997    -0.00012311713606805
 998    -4.6142086537545e-05
 999    -4.9435572125444e-05
 1000    0.00011315064278413
 1001    0.0025898017009546
 1002    7.918836165545e-05
 1003    -0.00032020014243795
 1004    -0.00031011646972808
 1005    0.00017922562714374
 1006    0.00027874338411064
 1007    0.0024174809397716
 1008    -7.0549007101115e-06
 1009    -5.2891769286395e-05
 1010    -5.9040408775223e-05
 1011    0.00047733119969403
 1012    0.00027611538351758
 1013    -7.8224945011161e-06
 1014    8.6894673580077e-05
 1015    8.0739854955639e-05
 1016    0.0017004184427677
 1017    -0.0018211635839846
 1018    -3.9150832822173e-05
 1019    -0.00010081634996916
 1020    0.00028008962983051
 1021    -0.0017100121148365
 1022    -0.0033434062112563
 1023    -2.3037110521887e-05
 1024    8.788362452585e-05
 1025    -6.0786286670107e-05
 1026    0.0027690562039895
 1027    -0.0070955980576014
 1028    0.00017925080838935
 1029    0.00012380634600599
 1030    -1.5873759867229e-05
 1031    0.00084184680917946
 1032    -0.0057515796130112
 1033     0.004901037543853
 1034    -0.00043136037838464
 1035    0.0024029522632388
 1036    -0.00066260391223919
 1037    -9.279455300209e-05
 1038    -0.0074372845244926
 1039    -0.0026713956844736
 1040    0.00031881204913073
 1041    0.00025661555423521
 1042    0.00020298540198171
 1043    3.689539825014e-05
 1044    -0.00026194862570979
 1045    -0.0036039660277273
 1046    -0.011662535681075
 1047    -0.0067838019520087
 1048    -0.0035456983663863
 1049    -0.0063241262591786
 1050    0.0027111306511066
 1051    0.0030351786982751
 1052    0.00040001587229466
 1053    -0.0039212357832125
 1054    9.8225969077792e-05
 1055    -0.00025150620752891
 1056    -0.0001815033959895
 1057    0.00045698322740677
 1058    -0.00033593428743717
 1059    -0.0024449987853484
 1060    0.0090911759275654
 1061    -0.00015694946012043
 1062    -0.00030605438910733
 1063    0.00066981011774028
 1064    -0.017068890521325
 1065    0.0038568069267537
 1066    0.0012712037266945
 1067    0.00035919608212993
 1068    -0.0012971023720039
 1069    -0.0053940334240104
 1070     0.008981176475536
 1071    -0.00036008953810423
 1072    0.00054131253791742
 1073    5.7351458080143e-05
 1074    -0.0027961241749269
 1075    -0.0042296066792405
 1076    -7.5103719365741e-05
 1077    0.00074887001626118
 1078    -0.00077465907322142
 1079    -0.0060208656935154
 1080    0.00019706267054398
 1081    0.00034853852029602
 1082    0.00028183729695042
 1083    -1.8007969497431e-05
 1084    0.00080928247993108
 1085    0.0025956164666991
 1086    -0.00022363347295571
 1087    -0.00021027806562098
 1088    -2.7034811013627e-05
 1089    -0.0031381559482386
 1090     0.006301869062145
 1091      0.01676072740612
 1092    -0.0054830797323632
 1093    -0.0084480293090049
 1094    0.00072139189349397
 1095    -0.004883407062104
 1096    -0.010283854519409
 1097    0.0017241786965572
 1098    0.00011870409925598
 1099    0.00017618209222865
 1100    -9.5160895059947e-05
 1101    0.00016056169299097
 1102    0.00023755078399712
 1103    -0.0028791108010927
 1104    -0.0085903357261922
 1105    -0.0044725113257054
 1106    -0.0030356182190961
 1107    -0.0045024367336237
 1108    -0.0041322905293934
 1109    0.0050929874607091
 1110    0.0034116536637334
 1111    -0.00063012947664004
 1112    -6.2213750199797e-05
 1113    -0.00043651406714951
 1114    -0.00038228025477851
 1115    -5.8979441322553e-05
 1116    0.00069646209209641
 1117    -0.0096161065204818
 1118    -0.0010910420857207
 1119    0.00060298046906253
 1120    -0.00052325536259243
 1121    0.00030514897530698
 1122    -0.0076663194602787
 1123    0.0091342114785739
 1124    0.00011050854272065
 1125    0.0010590114764541
 1126    0.00046899164768056
 1127    -0.00023964704672427
 1128    0.0028147978608134
 1129    0.00011239701792912
 1130    0.00028497591864881
 1131    1.7254406680214e-05
 1132    0.0021427940340391
 1133    -0.006154960891187
 1134    0.00070471540787834
 1135    0.00088687349366974
 1136    0.00019233391998486
 1137    -0.0024762223127486
 1138    -0.0036393111784345
 1139    -0.0001894941991445
 1140    -0.00016175938082622
 1141    -1.100489348596e-05
 1142    -0.0015877885077259
 1143    -0.0048417789941084
 1144    -4.2872716800743e-05
 1145    4.9438579415419e-05
 1146    0.00019966081812771
 1147    8.5715210949794e-06
 1148    -0.00010715593336692
 1149    -7.6049578679003e-05
 1150    -4.1814295451368e-05
 1151    -3.1601295097469e-05
 1152    -7.7815810508523e-05
 1153    -2.5524224444481e-05
 1154    0.00011552630681412
 1155     4.08600508332e-05
 1156    -3.7495619159673e-06
 1157    -6.5560091255066e-06
 1158    -5.3808236039722e-06
 1159    1.2739777229495e-05
 1160    7.2765012589783e-06
 1161    -4.7856336071503e-05
 1162    -0.00018901829499997
 1163    0.00030260553144166
 1164    0.00055632254367045
 1165    0.00011151974961107
 1166    0.00046860126183611
 1167    -0.00070583474444479
 1168    -0.0001384668358155
 1169    -0.00092626594104505
 1170    -2.6437268727584e-05
 1171    1.7070613866698e-07
 1172    -1.3401458659612e-05
 1173     1.43832365023e-06
 1174    -3.0110005638866e-05
 1175    0.00023719028801532
 1176    -0.0020311268056045
 1177    -5.9270382320414e-05
 1178    6.3360586856542e-06
 1179    4.2707025223361e-05
 1180    -8.2133066800631e-06
 1181    -0.00015241951363044
 1182    -3.9622231366343e-05
 1183    1.3440243513654e-05
 1184    -8.5446528324527e-05
 1185    -0.00023511927873528
 1186    0.0011763364729519
 1187    8.0574347275401e-05
 1188    -2.3515472495539e-05
 1189    -3.4812444300565e-05
 1190    4.8523271346428e-05
 1191    -9.464405287675e-05
 1192    6.9524937903776e-06
 1193    -1.1206782081251e-05
 1194    -4.5981798356602e-06
 1195    -5.9386188636499e-05
 1196    0.00021766986299586
 1197    -1.7581232999853e-05
 1198    1.0393081064791e-05
 1199    -2.1525914249152e-05
 1200    -1.3623844064699e-05
 1201    9.6794627190672e-05
 1202    -1.7768754865595e-06
 1203    -1.2064829025548e-05
 1204    -2.9804644674258e-06
 1205    -0.00016894130293345
 1206    0.0001173712031956
 1207    0.0066808947805435
 1208    0.00094307028536816
 1209    0.0013428114259931
 1210    -0.00090962857319429
 1211    0.0034561447291261
 1212    0.00049601712364837
 1213    -0.0022975196032388
 1214    0.00012122533797457
 1215    -2.3322857640773e-05
 1216    -0.00018954421641889
 1217    -1.8631593800523e-05
 1218    0.00011348023434036
 1219    0.00022305105209224
 1220    0.00071271851111093
 1221    0.0015718735009841
 1222    -0.0015250097244173
 1223    -0.00084613562502344
 1224    -0.002428335086403
 1225    -0.0014230705552473
 1226    0.0018205624076967
 1227     0.005309544465739
 1228    -0.00011811262290051
 1229    0.00019569588357105
 1230    0.00066045271797684
 1231    -0.0001865550508111
 1232    -6.0951834950995e-05
 1233    -0.0013556536556906
 1234    0.0022328214754353
 1235    -0.00029283260227343
 1236    0.00044574303872514
 1237    0.00012123602740943
 1238    0.0062864988360154
 1239    -0.0070275793297159
 1240    -0.00085928329868604
 1241    0.00079073697871101
 1242     0.001198679874241
 1243     0.000362042935955
 1244    0.00086665158841365
 1245     0.000212468683856
 1246    -0.0005617216860785
 1247    0.00024908409176141
 1248    0.0015266062339895
 1249    -0.0024976949012703
 1250    -0.00027436581006194
 1251    0.00024693262155199
 1252    0.00029698536783103
 1253    0.00096234825522303
 1254    -0.0057574182442011
 1255    0.00027061608395699
 1256    -3.9074985468427e-05
 1257    2.8350018298019e-06
 1258    -0.0005046704668592
 1259    -0.00091408829021236
 1260    -8.9927547755696e-05
 1261    8.6925933765215e-05
 1262    1.9179795895702e-05
 1263    -0.00099846315706538
 1264      0.00257983933073
 1265    0.0072472530205451
 1266     0.001104051066195
 1267    -0.00074661109953938
 1268    0.0033084188396498
 1269    0.0056295985606376
 1270    0.0017443890300405
 1271    0.00099493325095812
 1272    -5.6939275618257e-05
 1273    0.00011148512154591
 1274    -1.4780993317979e-05
 1275    0.00017136673199362
 1276    -3.9891662479017e-05
 1277    -6.7478708575685e-05
 1278    -0.00017839301006792
 1279    0.0024688438582895
 1280    -0.001021737532716
 1281    0.00037992047592538
 1282    0.00025527312636792
 1283    -0.00052558268836485
 1284    0.00036549694988847
 1285    -0.00078644975772709
 1286    -1.9454787255955e-05
 1287    -0.00020327641432477
 1288    -4.0027984428989e-05
 1289    -0.00011121991668559
 1290    0.00010665014642287
 1291    -0.0017102745345188
 1292    0.00018002046846608
 1293    -1.6300269148296e-05
 1294    6.5406275890547e-05
 1295    -8.804720000186e-05
 1296    0.0038101059819661
 1297    -0.00055816858075251
 1298    -0.0004467844705644
 1299    -0.00055132769395733
 1300    0.00061921946660515
 1301    0.00016196919166169
 1302    -0.0015591759942687
 1303    -4.7002236317279e-06
 1304    0.00029758159498158
 1305    0.00014698172469683
 1306    -0.00046369974776051
 1307    -0.00021431652205902
 1308    -4.0448000607739e-05
 1309    -4.9614543672303e-05
 1310    0.00017656763735503
 1311    0.0028137306468685
 1312    -0.0087211379691853
 1313    0.0001110888176537
 1314    9.4124108399834e-05
 1315    -6.6296496117262e-05
 1316    -0.0023853505872194
 1317    -0.0030932855426105
 1318    -0.00012212306923212
 1319    0.00014086384519048
 1320    1.5468779739431e-05
 Sym= A
 Ene=               0
 Spin= Alpha
 Occup=    0.00000
   1     0.050823260463777
   2    0.0092234403613387
   3    -0.076628681763691
   4     -0.08745387716768
   5    -0.051253565521881
   6    -0.023462494053144
   7    -0.083884555506722
   8    -0.053665284386762
   9    -0.024636547859442
  10    -0.088131883212677
  11      0.15632505018669
  12     0.073749424367583
  13      0.25612757512253
  14      0.21000368789419
  15     0.088531836312544
  16       0.3293952806594
  17    -0.0077600919372464
  18     0.003217382257273
  19    0.0057773648369703
  20    -0.017667717267155
  21    0.0023233201299369
  22    0.0028743470164167
  23    -0.00022576723585554
  24    -0.00093566457815019
  25    0.0078046768982588
  26    8.924711587299e-05
  27     0.032884381920958
  28     0.066976340773621
  29     -0.15930276681859
  30     -0.09283277266726
  31    0.0055626250294889
  32    -0.00054517189807233
  33    -0.0028403189668669
  34    0.0068520217652364
  35    -0.00078132190777482
  36    -0.0037858654493726
  37    -0.019385194939474
  38    0.0016574157981941
  39     0.011098139620747
  40    -0.023584868871758
  41    0.0042479871519089
  42     0.011557964855482
  43    0.0037302506519298
  44    0.0063018277273082
  45    6.4840249782424e-05
  46    -0.0075575107184598
  47    0.00083669062620872
  48     0.004010772244879
  49     0.004619670472892
  50    -0.00027866404428252
  51    -0.0060722919444715
  52    0.00052421050763328
  53     0.012002695318254
  54     0.023537442919968
  55    -0.061776084518298
  56    -0.016887229724931
  57     0.005998905490619
  58    -0.014961995514829
  59    0.0099461753673236
  60    0.0073497482827524
  61    -0.019961464008032
  62      0.01217780771698
  63    -0.020745380662712
  64     0.057988703907445
  65    -0.035360312105755
  66    -0.021351491321262
  67     0.048739418486353
  68    -0.033670670208481
  69    0.00095958674437172
  70    0.00080275117353987
  71    0.0030530764420503
  72     0.001612106956096
  73    0.0018084618135474
  74    0.0025845464618462
  75    -0.00029848322715896
  76    0.0018710479002787
  77    0.0042219402355019
  78    0.0010576056370407
  79     0.050256665948978
  80      0.10371456086114
  81     -0.24781108155947
  82     -0.14430118150012
  83    -0.0067711102330089
  84    -0.0029213856950738
  85    0.0044702703759106
  86    -0.0084681380340311
  87    -0.0041808787551737
  88    0.0058653650339317
  89     0.024970459829056
  90    0.0094944323743084
  91    -0.012631263540875
  92     0.026967657135753
  93     0.017761090850153
  94    -0.030187170435438
  95    -0.013415331127134
  96    0.0053016451149529
  97    0.00052836215690371
  98    -0.00050996174427433
  99    0.00018501785231282
 100     -0.01044181005664
 101    0.0044762443115865
 102    -0.00014817529176843
 103    -0.00015411315726135
 104    -0.0012204338013835
 105    -0.020505821872563
 106    -0.037813216659709
 107     0.087379793980959
 108     0.065785968447819
 109    -0.024436410094436
 110    0.0063204172225463
 111     0.019199666105599
 112    -0.033204869627186
 113    0.0081905015737062
 114      0.02332509901281
 115     0.088043671294941
 116    -0.022888422396089
 117    -0.068895582065373
 118      0.11110928060488
 119    -0.022287568354229
 120    -0.059049461130791
 121    -0.0020868941141471
 122    -0.0056716167796809
 123    0.00069138334623649
 124    0.0040948902763095
 125    -0.0017877157532083
 126    -0.0025493448135247
 127    -0.0033658427110796
 128    -0.00031492397759943
 129    0.0038179092859734
 130    -0.0016087505054369
 131    -0.005007944171802
 132    -0.0076649388564949
 133     0.012346317092605
 134     0.026108402152045
 135     0.010575056541992
 136    -0.0037994322677044
 137     0.015162138387538
 138     0.012970531698529
 139    -0.0053310478557169
 140     0.018800640011638
 141    -0.036957699437169
 142     0.011018396553383
 143    -0.053525877118194
 144    -0.037137449638767
 145     0.028821080218009
 146    -0.052377724136965
 147    -0.00042092911545207
 148    0.0016850447881835
 149    -0.0041267169455864
 150    -0.00084720531298573
 151    -0.0028564243013981
 152    0.00043063725626567
 153    -0.00083284180343146
 154    -0.0040830152252478
 155    0.0010215623784536
 156    -0.0027674592267074
 157    -0.026904823610549
 158    -0.048928876496241
 159      0.11341935306769
 160      0.08161867356049
 161     0.017841574886577
 162     0.010310764120521
 163    -0.031295157143969
 164     0.021950647229465
 165     0.013218775286518
 166    -0.042540356915789
 167    -0.063855598079776
 168    -0.036473873188462
 169      0.11218522395832
 170    -0.057228202533669
 171    -0.039349966942539
 172       0.1393702623232
 173    0.0048715525405166
 174    -0.0051902168266438
 175    -0.0025067784928643
 176    0.00053355237746516
 177    0.0013238969339225
 178    0.0050844923217795
 179    -0.0028497360862718
 180    -0.0035241752900181
 181    -0.00040377585048934
 182    -0.00013672317118564
 183    0.0097039774616861
 184    0.0018456561436092
 185    -0.015793005163113
 186    -0.016123662508941
 187     0.073099587255019
 188    -0.029017635208808
 189     0.097347238128576
 190     0.077142061252303
 191    -0.030769398759793
 192      0.10263316652501
 193      -0.2268532617238
 194     0.090752335620086
 195     -0.30249056511461
 196     -0.31359152597304
 197      0.12313872051073
 198     -0.41660382616393
 199    -0.029104647676236
 200    -0.00010662559858189
 201    -0.0057669708006327
 202     0.013980445361527
 203    -0.00037622691709099
 204     0.011330338103694
 205    0.00075078986225524
 206    -8.0335952889036e-05
 207    -0.0060062263609942
 208    -0.0010550369112306
 209    -0.035764426717366
 210    -0.073376625709913
 211      0.17306409505674
 212      0.10928151435276
 213    0.00025667976951913
 214    0.0075702850492997
 215    -0.0092530786988122
 216    0.00021414799778688
 217    0.0094219457673108
 218    -0.011660239210474
 219     0.003174068813915
 220    -0.027394201091125
 221     0.034243095440837
 222     -0.01178238512801
 223    -0.027103697317158
 224     0.032514580525129
 225    -0.0041747241156936
 226    -0.0072913564866128
 227    0.00026969013734444
 228    0.0082553896033284
 229    0.0010553640048973
 230    -0.0033088914202694
 231    -0.0063065218268678
 232    -0.0015219846380195
 233    0.0059800967884265
 234    0.0018487963132116
 235    0.0096721651738441
 236     0.019628470114446
 237    -0.047194553651378
 238    -0.026863565735817
 239    -0.0098297733106396
 240    -0.010755634999937
 241    -0.010948731091424
 242    -0.012590493683414
 243    -0.014566449228733
 244    -0.013665254873081
 245     0.036236124833593
 246     0.042209818859626
 247     0.040755861011449
 248     0.037707560609617
 249     0.042699427677499
 250     0.037189736360355
 251    0.00051105816467455
 252    -0.00033596267898852
 253    -0.0035626976779915
 254    0.0020928763169686
 255    -0.003037356466109
 256    0.0033270980711985
 257    0.0007884610599293
 258    -0.0032732606577232
 259    0.0014618351527188
 260    -0.003745293840696
 261     -0.03646463843948
 262    -0.074212060884422
 263      0.17401204923673
 264      0.11457649050283
 265    -0.0078857131356733
 266    0.0099004343038619
 267     0.044226102079564
 268      -0.0102688541316
 269     0.012532092469924
 270     0.059966044741698
 271     0.028556506186501
 272    -0.036722686719104
 273     -0.16851011484116
 274     0.030091944631226
 275    -0.033459410635499
 276     -0.18136731463818
 277    0.0078755379563148
 278    -0.0024732775317857
 279    0.0035216856254022
 280    -0.00020340406533546
 281    2.5458189879559e-05
 282     0.010938852157229
 283    -0.0023357886659285
 284      0.00190793125901
 285    -0.00090279045726326
 286    -0.00052164474155118
 287     0.027503292748596
 288     0.057356835900261
 289     -0.13399260626355
 290    -0.087696671589448
 291     0.035196215465854
 292    0.0015309766319609
 293    -0.011393326229301
 294     0.047739998615175
 295    0.0021131393218749
 296    -0.014527541166299
 297     -0.13520103598827
 298    -0.0049751562229144
 299     0.040910614262756
 300     -0.14065029402595
 301    -0.0076999005675941
 302     0.042186567085648
 303    0.0032525596836931
 304    0.0032457364757505
 305    -0.00019257111224048
 306    -0.0057676056596743
 307    0.00013854079037729
 308    0.0051220161082454
 309    0.0036703121446832
 310    -0.00096802681270512
 311    -0.0071152762766106
 312    -0.0013899670485484
 313    -0.0089195136192681
 314    -0.016347877861803
 315      0.03892577102284
 316     0.025097848178698
 317    -0.0098171406261061
 318    -0.0087630056269002
 319    -0.018497554622432
 320    -0.012040029633279
 321    -0.011785247841393
 322    -0.023341671031121
 323     0.035470139560342
 324     0.032499118410376
 325     0.066678601447889
 326     0.032442938133327
 327     0.037354664673829
 328     0.065834904686627
 329    0.00041683692427026
 330    0.00014501508958919
 331    0.0047758426681478
 332    -0.0011477253429003
 333    0.0024952566523095
 334    0.00073969562011357
 335    -0.00083677700566087
 336    0.0063036911126442
 337    -0.003184916220948
 338    0.0036123084603483
 339    -0.0057293881058721
 340    -0.0010974127411358
 341    0.0092761481029453
 342    0.0088279557571905
 343     0.058336367722766
 344    -0.00061633249437687
 345     0.066606910732626
 346      0.06112048638379
 347    -0.00060217090986856
 348     0.069892005592764
 349     -0.17982769525563
 350    0.0017044435632452
 351     -0.20417130342327
 352     -0.22720260178624
 353    0.0024885361587656
 354     -0.26267836170611
 355    0.0048668249890934
 356    -0.00021776232185319
 357    0.00093834641014757
 358    -0.00082046426283213
 359    0.00076309692938406
 360    -0.00083156500471673
 361    2.8147810581951e-05
 362    0.0001868602907527
 363    -0.00073000955127397
 364    0.0001456374129427
 365    -0.017883481043509
 366    -0.033076716601251
 367      0.07754725688787
 368     0.050531532160782
 369     0.022438594089812
 370    -0.0033698682312844
 371    -0.0071656329699105
 372     0.030374300762909
 373    -0.004141463132415
 374    -0.0088177421666593
 375    -0.082397841404892
 376     0.012675498981517
 377     0.025169555328828
 378    -0.092237128265085
 379    0.0081846038122993
 380     0.024402183086059
 381    -0.0020296076235784
 382    -0.0018196178441529
 383    0.00041014847886799
 384    0.0033337123432659
 385    -0.0014560869193939
 386    -0.0019947858480363
 387    -0.0025865391816928
 388    -8.183929148009e-05
 389    0.0034819569607196
 390    0.00036315155597673
 391    -0.0004695487833361
 392    -0.00095324844796588
 393    0.0028099199046753
 394    -0.00036473132290863
 395    -0.0089531741255796
 396    0.00089545391854682
 397    -0.010371696841419
 398    -0.011397800426038
 399    0.0010586333752783
 400    -0.013206062367962
 401     0.032563424405622
 402    -0.003435443051969
 403     0.037573268735213
 404     0.032198328350577
 405    -0.0014379199541434
 406     0.037636299905932
 407    -0.00018939562176851
 408    -8.2238501641134e-05
 409    -0.0033326550123311
 410    7.0902104849981e-05
 411    -0.0028428220857623
 412    0.00047964536942846
 413    -0.00010697157207424
 414    -0.0026218151691398
 415    -0.00081426310145934
 416    -0.002379751044538
 417      -0.0395534937022
 418    -0.081219094064745
 419      0.19449148076314
 420      0.11325180990864
 421    -0.0025377051769625
 422    -0.00044357850952082
 423     0.002288470301311
 424    -0.0033765736416374
 425    -0.00054200386688301
 426    0.0026658873127467
 427     0.010652983455435
 428    0.0021120421217621
 429    -0.0078733138907259
 430    0.0087582646195533
 431    -0.00043149677008897
 432    -0.0088186900570544
 433    0.0099555185759033
 434    -0.005958412335797
 435    3.0675822134895e-05
 436    0.00053006907612298
 437    0.00033431164654299
 438    0.0090892575296007
 439    -0.0040974525561451
 440    -0.00024633968742167
 441    -0.00021765916348758
 442    -0.00051726555258037
 443    0.00040907872608725
 444    0.00089620092139401
 445    -0.0014365336950578
 446    -0.0029808956716722
 447    -0.0072142774091665
 448    0.0011690056058441
 449    -0.0083816757407728
 450    -0.0088479640403737
 451    0.0015479274041182
 452    -0.010404870789905
 453     0.025727372714469
 454    -0.0040063921842665
 455     0.029777917906918
 456     0.023904608705351
 457    -0.005705845548444
 458     0.029268957068732
 459    0.00062329323921384
 460    8.0672010266265e-05
 461    0.0021925907336002
 462    0.00021587596331694
 463    0.0018210940473997
 464    -0.00086049328989098
 465    9.4617989355269e-05
 466    0.0027354646312501
 467    0.00057219799554867
 468    0.0025146801692545
 469     0.020403627071967
 470     0.038137006801418
 471    -0.088245994357691
 472    -0.061982432184566
 473    -0.0070524611603121
 474    0.0023116813699719
 475     0.025995901638843
 476    -0.0088672248398462
 477    0.0028686494892226
 478     0.035222097268707
 479     0.025087409457954
 480    -0.0088486309648035
 481    -0.095131482583883
 482     0.024740434498929
 483    -0.0048400591826805
 484     -0.10955384044965
 485    -0.0048772523119685
 486    0.0018206399148195
 487    -0.0012755872135249
 488    5.6568513570473e-05
 489    0.00024493814861291
 490    -0.0042647343636046
 491    0.0027836563658908
 492    0.0009166324563466
 493    -0.00020482628684424
 494    2.4851705789403e-05
 495    -0.036489456997806
 496    -0.006894703810599
 497     0.058284455623374
 498     0.055251570134488
 499    -0.058253102482042
 500    0.0061651826231792
 501    -0.064796238403634
 502    -0.061017165701089
 503    0.0065149977112608
 504    -0.067890223624524
 505       0.1761781152393
 506    -0.020787503166317
 507      0.19718781939522
 508      0.23255693656794
 509     -0.01819824853994
 510      0.26048266543195
 511    0.0090939369747123
 512    -0.0019904701288169
 513    0.0027459884939787
 514     0.007384153336244
 515    0.0024853649551241
 516    -0.0047989560269075
 517     0.001274239836257
 518    -0.00042672183828449
 519    -0.0034608310056717
 520    -0.00059312686885489
 521     0.018381004335922
 522     0.032863525097274
 523    -0.075339698430126
 524    -0.057917619477528
 525    -0.021854791382816
 526    -0.0052432061073716
 527      0.01481918379531
 528    -0.029713628680249
 529    -0.0068194300129059
 530     0.017918781663062
 531     0.077719227373419
 532     0.018517089657308
 533    -0.052702137718369
 534     0.099218084782629
 535     0.020919493010251
 536    -0.045921550997614
 537    0.0013876905593677
 538    0.0043182812231966
 539    0.00078663231614537
 540    -0.0031949433483694
 541    -0.0014122823991145
 542    0.0021592580019779
 543    0.0022220494986184
 544    0.00011603881853231
 545    -0.0032780382856339
 546    -0.0016234006742685
 547    -0.0053370865318337
 548    -0.010456117239412
 549     0.028494168541659
 550    0.0037320138926408
 551    0.0076132959512599
 552    0.0074003709027207
 553    0.0089895531793373
 554    0.0094664424376535
 555    0.0096405691660277
 556     0.010963409196755
 557    -0.027037360792743
 558    -0.028604597844718
 559    -0.032260960904752
 560    -0.027726192063277
 561    -0.020486707186363
 562    -0.029308436717807
 563    -0.00023099979011264
 564    -0.00076692835447446
 565     0.002640989722161
 566    -0.00055482367718887
 567    0.0024959820646397
 568    -0.0018160313471741
 569    0.00057679311392203
 570    0.0020427100408811
 571    -0.0023909566350124
 572    0.0015820970148229
 573     0.021853977389456
 574     0.040045364345491
 575    -0.093370670438474
 576    -0.066208027038546
 577     0.014665467649109
 578    -0.0050763300391277
 579    -0.026239500655004
 580     0.017653232613046
 581    -0.0064386618501173
 582     -0.03560537251343
 583    -0.052709261487078
 584     0.018061564745759
 585     0.094416323460915
 586    -0.044424242975657
 587     0.018850501209953
 588      0.11591875006964
 589    -0.004273899695847
 590    0.0045394173150517
 591    -0.0013089427259551
 592    -0.00044415087067966
 593    0.00057087803162102
 594    -0.0049093497492754
 595    0.0018112528523772
 596    -0.0016733617264509
 597    0.00016494491511035
 598    0.00022424547319925
 599    0.0027152529402468
 600    0.0041260114729696
 601    -0.0075492010534535
 602     -0.01235303174504
 603     0.010873999609865
 604    0.0036878196263463
 605     0.012078840490323
 606     0.013358943641253
 607    0.0050027093408762
 608     0.014734842536862
 609    -0.038363195617961
 610    -0.011349475984863
 611    -0.042689229582738
 612    -0.036596145575814
 613    -0.022976321741882
 614    -0.039732034727684
 615    0.00085221956984269
 616    -0.00051289349777497
 617    -0.0031856108660246
 618    0.0013376326673329
 619    -0.0029595460647361
 620    -0.00016063218169239
 621    0.00087532869953052
 622    -0.0031484621987167
 623    -0.00037300536260269
 624    -0.0025540110050498
 625    -0.00024265807378498
 626    -0.0021074826284807
 627     0.005058122161024
 628    -0.0018860013913505
 629    0.0014214325726684
 630    -0.0013455825510634
 631    -0.0021157352188007
 632    0.0025545473097495
 633    -0.0031232390629069
 634    0.00025539457083406
 635    7.0775649616541e-05
 636    -9.0813502725308e-05
 637    0.00015285957455585
 638    -0.00010339983436666
 639    -0.0023854098915177
 640    -0.0079130006076868
 641    -0.0068110444523445
 642    0.00074994474095031
 643    0.0069743490294463
 644    0.0020363677304438
 645    0.00084846790695933
 646    -0.008313688854629
 647    -0.0059401196537017
 648    0.00016743157163526
 649    0.00013715133405686
 650    0.00015888660821655
 651    -6.7899577007646e-05
 652    0.00034827167189258
 653    -0.0064538943647595
 654    0.0092319422237478
 655    -0.00034934875772858
 656    -0.00078537939279748
 657    -0.00068348447364218
 658    -0.0072671330192466
 659    -0.0021556106883284
 660    -0.0011326136309254
 661    -0.00036469157061977
 662    -0.0010508704188665
 663    -0.012139424080283
 664    0.0070611919289061
 665    -0.00064178585928634
 666    -0.00064619219222702
 667    -0.00099758787979631
 668    -0.00096862740715771
 669    0.00098803461602616
 670    -0.00013615910052541
 671    0.00011460852792136
 672    -0.00023573000123018
 673    -0.00020704997839844
 674    -0.0028145731628801
 675    0.00011313882902023
 676    0.00017141068850669
 677    -0.00049851753321165
 678    0.0014725695163081
 679    -0.006817386736108
 680    -7.0142934155466e-05
 681    -0.00030888847534647
 682    -0.00011853703894381
 683    -0.00056471599969309
 684    0.00026926204591379
 685    0.0045555915545516
 686    -0.00033360731464343
 687    -0.0010364894365263
 688    -0.008544092158677
 689    0.0011881697248177
 690    -0.0030832539796316
 691    -0.0099520223354672
 692    -5.2976633155962e-05
 693    0.00020487343937997
 694    0.0003200837807446
 695    1.0207839730853e-05
 696    8.5286787749978e-05
 697    -0.002435971345783
 698    -0.0075214512134696
 699    -0.0043420863318196
 700     0.003496851321004
 701    -0.0044476384900913
 702    -0.00088161183778296
 703    0.0026231279329198
 704    0.0026620922575849
 705    -0.0029330466227636
 706    0.00029484701897191
 707    4.4342063324863e-05
 708    -0.00018662565649992
 709    -0.00014582007907058
 710    0.00047428492405288
 711    -0.012223119401542
 712    0.0020559012836019
 713    -0.00010777695903225
 714    0.00049258295856935
 715    -0.00056969571116259
 716    -0.0043109960748958
 717    0.00085003700062667
 718    -4.0640517875948e-06
 719    0.00064639833743749
 720    -0.00069394590186457
 721    -0.00016688456326717
 722    0.0079310680471131
 723    -0.00051038577321596
 724    -0.00032146584509032
 725    -0.00011115521991255
 726    9.9875879843174e-05
 727    -0.0065896137186001
 728    2.1231336681737e-05
 729    0.00053770041463066
 730    0.00057620819706548
 731    -0.00072265221353813
 732    -0.0020634484756302
 733    -0.00010792195851388
 734    0.00010047319578094
 735    -0.00031185494591009
 736    -0.0068756058449875
 737     0.011356240019462
 738    -0.00040202507524983
 739    -0.00013917603826954
 740    -0.00012961804083035
 741    5.1816736973281e-05
 742    -0.00017052276105213
 743    -0.00087871276059993
 744    -2.3458082398027e-05
 745    -5.9276417737746e-05
 746    0.00029250867526704
 747    -8.2016724892797e-05
 748    0.00015387907064479
 749    0.00023803913710911
 750    -6.7195579073395e-05
 751    -3.8957891309668e-06
 752    -5.9165557019676e-05
 753    3.8654112007695e-05
 754    -4.5851902514717e-05
 755    -8.2343434976415e-05
 756    -0.00033783148145659
 757    -0.00047615661465202
 758    -0.0042904426252446
 759    0.00082277644668722
 760    -0.0057702811597913
 761    0.0065518715812241
 762    -0.00090051570863435
 763    0.0090388596402152
 764    -9.1864388840282e-05
 765    0.00010577474406727
 766    -0.00018425522286282
 767    -9.8001858496553e-06
 768     -0.00028517640205
 769    -0.0019833479917825
 770     0.012153953804607
 771    -0.00024380977292535
 772    7.0807359364795e-05
 773    0.00035275716085468
 774    -0.0018493196656715
 775    0.0049292229273819
 776    0.0002754973094413
 777    0.00024183952264237
 778    0.00064844950453261
 779    0.0018571258040328
 780    -0.015183466435067
 781    0.0002260486358308
 782    -0.00021007037431027
 783    -0.00035148737866743
 784    1.3559415308305e-05
 785    0.0018334100303712
 786    0.00010312018773953
 787    -0.0001193905515889
 788    9.4651361734991e-05
 789    -0.00026597051377415
 790    -0.0010910713206031
 791    5.8069812101191e-05
 792    7.8862383308243e-05
 793    8.3026022865238e-05
 794    0.00017041904773546
 795    -0.00034480449201775
 796    -8.3657066419726e-06
 797    1.1706551409062e-06
 798    5.2176764087093e-05
 799    3.9633277244907e-06
 800    -0.0012787110922028
 801    0.0034416283138413
 802    6.0868777010289e-05
 803    2.4928019216422e-05
 804    -0.00047253445313144
 805    0.0033862881392319
 806    -0.00078444470365027
 807    -0.00044041266402058
 808    -0.00014454205814196
 809    2.8136788281482e-05
 810    -4.0685612672027e-05
 811    0.00016026086642989
 812    0.00026112362435345
 813    -0.0010309806522287
 814    -0.0036746255558287
 815    -0.0011374269855492
 816    0.0041447698495888
 817    0.0010470305978989
 818    0.0024547045573903
 819    -0.0090115657533629
 820    -0.00040615254030121
 821    -0.0014864991226053
 822    -0.00027067504000158
 823    0.0003493787009745
 824    5.0500681772817e-05
 825    -0.00033311814206702
 826    -0.00090071821230393
 827    0.0021319446693272
 828    -0.0050165488864364
 829    -0.00086334667633793
 830    0.00066510455030341
 831    0.00075466042454944
 832    -0.0055271827656386
 833    0.0021685262889635
 834    -0.00068583706280219
 835    -0.00034783621277122
 836    -0.00018068013554636
 837    -0.006183112378495
 838    0.0063395731457272
 839     -0.00125246583923
 840    -0.0012159702042807
 841    -0.0007883070106801
 842    0.0016458689278885
 843    -0.0021428427085484
 844    -0.00040988600859632
 845    0.0001184118179637
 846    -3.3706383990205e-05
 847    -0.001526303875518
 848    2.6716842265067e-05
 849    -0.00011124910609505
 850    6.2133923612979e-05
 851    -9.373638184064e-05
 852    0.00029248098683052
 853    -0.0024605895351741
 854    -0.00016877947578818
 855    -9.3762567060971e-05
 856    -6.3802878057924e-05
 857    -0.00042933041962211
 858    0.0017189823887338
 859    -0.0026821657492107
 860    -0.0025702334062521
 861    0.00069647970441678
 862    -0.0014741965753388
 863    -0.0024938602625278
 864    -0.0018128194953319
 865    -0.0055104453974019
 866    -8.511953520606e-05
 867    -0.00018232088028396
 868    -6.0414117278526e-05
 869    -0.00025299530694779
 870    -0.00020182563927217
 871    0.00046995230674163
 872    0.00029756367510596
 873    0.0041745289999808
 874    -0.0063157286861986
 875    0.00099259665778485
 876    -0.0050358957986691
 877    0.0018052827614393
 878    -0.003333687252234
 879    0.0027316828456987
 880    -0.00022193172442113
 881    -0.00072026903805222
 882    5.778571380964e-06
 883    -0.0003476284796609
 884    -0.00010337494333664
 885    -0.011386917530215
 886    -0.0038182374254245
 887    0.00078827713995336
 888    0.00018460009340676
 889    0.00033958036843885
 890    2.8578658440103e-05
 891    0.00023361635441689
 892    0.00029742400882342
 893    0.00032428192140081
 894    0.00020841394929758
 895    0.0029248716969753
 896    0.0036245313489956
 897    -5.8238328054923e-05
 898    -0.00019521623035186
 899    0.00051533514873072
 900    0.0012710043000252
 901    -5.7080020665903e-05
 902    0.00028769014751302
 903    0.00019490720112912
 904    0.00028019669698019
 905    0.0030290803197509
 906    -0.0020941986291791
 907    0.0003102962992927
 908    0.0002825254557363
 909    0.00064275988430073
 910    0.00039449427580338
 911    -0.0021204725945063
 912    5.9853871359437e-05
 913    -0.00011588179908546
 914    -0.00012062429034174
 915    -0.0016250938400868
 916    0.0027743839941381
 917     0.023031511787681
 918    -0.0035954379724679
 919    0.0046216393087699
 920    0.00056355609783941
 921    -0.0093764177812352
 922    0.0087619780281285
 923    -0.0095862875155409
 924    2.7614927591211e-05
 925    -0.00032640614987464
 926    0.00047155083502088
 927    -8.005607587555e-05
 928    -0.00014398195304251
 929    0.0018220458934695
 930    0.0094974569088538
 931    -0.019822482568854
 932    0.0055551313186381
 933    -0.0027521848934376
 934    0.0051284419319069
 935    0.0021935897505413
 936    -0.0027437122336214
 937    0.0040269500384526
 938    0.00027216488251515
 939    0.00040288328291753
 940    -0.00020196302273964
 941    -0.0001071690294448
 942    -0.00024310524693993
 943     0.022430988245666
 944     0.011069566784453
 945    -0.00051886246358742
 946    0.00031410334606635
 947    0.0002716519378459
 948    0.00034476694353563
 949    0.0027118477572372
 950    -8.5343162237339e-05
 951    0.00031812872939595
 952    0.00012771500723062
 953    0.0018433493645058
 954    -0.0022423904964883
 955    -0.00061538705077373
 956    -7.9172770611197e-05
 957    -0.00032299874834774
 958    0.0079935792100923
 959    -0.015723385789626
 960    -0.00030926309973638
 961    0.0003344757461537
 962    -0.0001110659782399
 963    0.0016160365297421
 964    0.0062432580279444
 965    -0.00019732381949074
 966    0.00065675540315455
 967    -0.0004407338499143
 968    0.0017314518152601
 969    -0.014234557653769
 970    -0.0003973883738399
 971    -0.00050073243674678
 972    2.4248863300592e-05
 973    -0.0004603803500133
 974    0.00033907357203949
 975     0.005585800688845
 976    -0.0060980889626903
 977    0.00095496352582701
 978    -0.0023906531513566
 979    -0.0030684853848893
 980    -0.0025296213861346
 981    -0.0080008883012886
 982    0.00031935547775518
 983    0.00038914940755998
 984    9.4548864830772e-05
 985    0.00011703523932868
 986    0.00013144533037645
 987    -0.00072431203089311
 988    -0.0032861411227628
 989    0.0063653401382173
 990    -0.0020439779643803
 991    -0.0015665240521386
 992    0.0011496808988745
 993    0.00027182804744398
 994    0.0021113935553657
 995    7.9382336707937e-05
 996    5.0373326987426e-05
 997    -0.00028577252611477
 998    -8.1669308529963e-05
 999    -0.0001223043445657
 1000    -0.00027433686711761
 1001    -0.0034056391191818
 1002    -0.0016561956912394
 1003    -0.00037657791451899
 1004    -0.00060664255500877
 1005    0.00023730629680366
 1006    -0.0037131250029069
 1007    0.0015417368601072
 1008    -0.00055870381839696
 1009    0.00017558306727042
 1010    -0.00041074925538887
 1011    -0.0024697843796982
 1012    -0.0001993994492094
 1013    -0.00032856966255124
 1014    0.00053535979846272
 1015    6.6647754410398e-05
 1016    -0.0066653745989517
 1017    -6.5518543497011e-05
 1018    -0.00011311663958853
 1019    7.1103609608812e-05
 1020    -0.00073468800645445
 1021    -0.0027956345985815
 1022    -0.00060835974214171
 1023    -0.00015935035806445
 1024    0.00012917147682751
 1025    0.00031888422714815
 1026    0.0023278025510002
 1027    -0.0073238068903172
 1028    3.4261367575421e-05
 1029    0.00036509440576475
 1030    5.8907357941471e-05
 1031    -6.0969103295986e-05
 1032    0.00036279319073668
 1033    -0.0057962249888957
 1034    0.0032603901951466
 1035    -0.0011104095402512
 1036    0.0032842320364518
 1037    -2.08951928509e-05
 1038    5.2545771332172e-05
 1039    0.0011960695423139
 1040    -0.00036352974253471
 1041    -2.3846840454341e-05
 1042    9.322510579698e-05
 1043    9.6085051583811e-05
 1044    -0.00019606986385866
 1045    -0.0010576231273948
 1046    -0.0033897095631053
 1047    -0.00075415632715734
 1048    -0.0029825011688068
 1049    -0.0015891454655267
 1050    -0.0010619417378946
 1051    0.0035277795517615
 1052    -0.0024372765610711
 1053    0.0011790548337519
 1054    0.00034531179200711
 1055    -1.0855150414794e-05
 1056    0.00033133991044233
 1057    -4.7078344345266e-05
 1058    0.00041107280558206
 1059    -0.0021629455133266
 1060    0.0084620582496959
 1061    0.00022348202791271
 1062    -0.00065536324181405
 1063    0.00025134691743721
 1064    -0.0048352158764033
 1065    -0.00040786483026899
 1066    -0.00014182192655949
 1067    -0.00020066524368675
 1068    -0.00033338523511225
 1069    0.0022257089102864
 1070    -0.0034037248757444
 1071    0.00037583662032374
 1072    0.00051142788683108
 1073    0.00031107766668084
 1074    -0.0048976272935534
 1075    0.0056215774488017
 1076    0.00034199247723741
 1077    0.00026961990587716
 1078    -3.9949295479991e-05
 1079    0.0051301792279085
 1080    0.0020148952756456
 1081    -0.00026647505686509
 1082    -0.00013112339230443
 1083    0.00028682672930288
 1084    0.00028992823083493
 1085    -0.0007040073304537
 1086    0.00010267096604091
 1087    6.0368463910478e-05
 1088    -1.9580962164489e-05
 1089    -0.0007348282299049
 1090    0.0018240428704703
 1091    0.0042413878575815
 1092    -0.0084322799526044
 1093    -0.0033963875310235
 1094    -0.0011552705683113
 1095    -0.0082778880420465
 1096    -0.0041028276176148
 1097    -0.003237297258809
 1098    -0.00027501034656891
 1099    -0.00041729152418485
 1100    7.5225590723367e-05
 1101    -0.00029013553900301
 1102    0.00018010203330564
 1103    0.00040794537382049
 1104    0.0022783355510244
 1105    -0.0050533732748759
 1106    -0.0024899008064052
 1107    0.0025674176670976
 1108     0.001334152260695
 1109    0.00058028521283097
 1110    -0.0034203942717001
 1111    0.0011192082247818
 1112    -4.7452386840193e-05
 1113    3.7223774430787e-05
 1114    -7.0706044862424e-05
 1115    7.2391434177617e-05
 1116    -0.00037289171526617
 1117    0.0043355487158315
 1118    -0.00044496583704926
 1119    -0.00059268600596798
 1120    0.00029645630579766
 1121    1.2178236770507e-05
 1122    0.0029799105058505
 1123    0.00060601200753881
 1124    -0.00054721217105092
 1125    -0.00033432074049183
 1126    -0.00067115325225961
 1127    0.0030666540539544
 1128    0.0013719788543201
 1129    -0.00041406360317802
 1130    -0.00049577719504318
 1131    0.00015612000604807
 1132    0.0058660890171678
 1133     -0.01192408925851
 1134    0.00020465183251885
 1135    0.00019383603536232
 1136    -0.00032194692648655
 1137    0.0022914502191929
 1138    0.00033991543843183
 1139    -0.00019385656728923
 1140    -0.00010515490451964
 1141    6.3638330455651e-05
 1142    -0.0032958466212709
 1143     0.005167056941037
 1144    4.1236264217601e-05
 1145    -0.00046686659266207
 1146    -0.00013237864661557
 1147    7.2473302597187e-05
 1148    -0.0002772418971226
 1149    -0.00075631063576414
 1150    0.00041071682524125
 1151    -0.00013631558154494
 1152    0.00023030298210693
 1153    0.00026130409710812
 1154    0.00012102921368438
 1155    0.00013289995692964
 1156    3.2782214107845e-05
 1157    -1.5328404249377e-05
 1158    -4.2294997983312e-05
 1159    -6.638870621274e-06
 1160    -2.260115800655e-05
 1161    -1.8149607331182e-05
 1162    -6.9163180251554e-05
 1163    -0.00043736147666286
 1164    -0.0028339009392876
 1165    0.00033372356481907
 1166    -0.0030070496893486
 1167    0.0053800269062691
 1168    -0.00066876594345105
 1169    0.0048846017360922
 1170    0.00014736671993497
 1171    1.5548385088332e-05
 1172    0.00017296343691041
 1173    -8.0122272280652e-05
 1174    0.00015972730906318
 1175    -0.0018014126656311
 1176     0.010981119958688
 1177    0.00034253220898165
 1178    -0.0001755835840397
 1179    -0.00033260479048943
 1180    -0.00031724005827975
 1181    0.00062430465552154
 1182    0.00043510414112029
 1183    5.7592401965238e-07
 1184    0.00027877324141783
 1185    0.0011147347370943
 1186    -0.010776963092082
 1187    -0.00028021112131957
 1188     2.73218241592e-05
 1189    0.00023354303265648
 1190    -0.00027436886185547
 1191    0.0012873073252327
 1192    7.4785936993146e-05
 1193    7.2972766298749e-05
 1194    8.2780637532386e-05
 1195    0.00025017214920574
 1196    -0.00070271995922553
 1197    5.8664308682341e-05
 1198    -8.9988999889362e-05
 1199    2.4514666751215e-05
 1200    -4.746614618435e-05
 1201    0.00024252012070632
 1202    -7.795774084869e-07
 1203    -2.1513026572217e-05
 1204    -9.9025838466433e-06
 1205    -3.816754707664e-05
 1206    0.0014112566409248
 1207    -0.0014553126940911
 1208    -0.00037677587700906
 1209    -0.00015216439607233
 1210    -0.00015506808291377
 1211    0.00017970815135158
 1212    0.00073728202127289
 1213    0.0022587285003763
 1214    -0.00020565913019503
 1215    -2.114702550792e-05
 1216    0.00013587063215386
 1217    0.00010387578612385
 1218    -3.1427980808817e-05
 1219    0.0016426930462892
 1220    0.0055478697069576
 1221    0.0024226946828089
 1222    0.0034528562591935
 1223    -0.0016569309392951
 1224    0.0028407698907125
 1225    -0.0021207649444696
 1226    0.00095477026479289
 1227    -0.0066076117876054
 1228    7.780130225079e-05
 1229    -0.00023867992100429
 1230    -0.00045326994015365
 1231    0.00044830239378348
 1232    0.00016864198544069
 1233    0.0072682846800003
 1234    -0.0015538959830987
 1235    -0.00017266894192875
 1236    0.00063317963176014
 1237    -0.00039081606594019
 1238    0.0013212242060468
 1239    0.0027046911591648
 1240    0.0004024698708949
 1241    -0.00029621537574777
 1242    -0.00023138974249206
 1243    0.0057495462466455
 1244    -0.0072926431269262
 1245    -0.00064437416655821
 1246    0.00091468240449874
 1247    -0.0010966203942938
 1248    -0.00079909287673576
 1249    0.00042236422280249
 1250    -0.00013430906447121
 1251    -0.00010729165563852
 1252    -0.00032252305513961
 1253    -0.00010094924439235
 1254    0.0017734585447063
 1255    -1.2061545082625e-05
 1256    0.0001150899969454
 1257    -0.00015567697801667
 1258    0.0014060101028592
 1259    -0.00014497456479024
 1260    -0.00012993085439212
 1261    -6.0364956995162e-05
 1262    -8.5651803250255e-05
 1263    -0.00030221027674642
 1264     0.001679618868533
 1265    -0.001914073775749
 1266    -0.0018872796130182
 1267    -0.0023090130895806
 1268    -0.0036774237044841
 1269    -0.0064492392306321
 1270     0.002290521793742
 1271    -0.0011145211698291
 1272    0.00015242492299086
 1273    -0.00025748836676006
 1274    0.00014768791538192
 1275    -0.0003743382120648
 1276    8.9612582376901e-05
 1277    0.00053674689569174
 1278    0.0027739536405557
 1279    -0.0064376103618381
 1280    0.00090641102336288
 1281    0.0020729695406584
 1282    -0.0010932542403359
 1283    -0.00044873425406669
 1284    -0.0027962598462272
 1285    7.2961711940701e-05
 1286    -4.4677759916779e-05
 1287    0.00033668234862041
 1288    -0.00031564098237355
 1289    0.00014871070052116
 1290    -0.00014453624832228
 1291    0.0046093756314804
 1292    -0.0025480404592039
 1293    -0.00033020924918795
 1294    -0.00011119255405056
 1295    -0.00060584379165071
 1296    0.0030219370392455
 1297    0.0018788402047416
 1298    0.00028638982108168
 1299    0.00044024709192058
 1300    -0.00020397301854273
 1301    0.0013960522280898
 1302    0.0018422958583399
 1303    1.8076231409779e-05
 1304    -0.0004644315309544
 1305    -0.00031813699442818
 1306    0.0074984419185348
 1307    -0.00029114006705607
 1308    -0.00069701519990395
 1309    -0.00022627379207112
 1310    -0.00010700103588679
 1311    -0.00049700030334169
 1312    0.0046502495548164
 1313    -0.00011909658018431
 1314    -0.00026644268993652
 1315    -9.391154938878e-05
 1316    0.0014757295307978
 1317    -0.0014689516129801
 1318    0.00036489282488226
 1319    -8.9178800649451e-06
 1320    -0.00019770713583256
 Sym= A
 Ene=               0
 Spin= Alpha
 Occup=    0.00000
   1    -0.040125993243338
   2    -0.0073065129497173
   3     0.060918973888584
   4     0.069413165531876
   5     0.084449117416251
   6     0.024871460335982
   7     0.017917741420142
   8     0.088952582829313
   9     0.026174587480549
  10     0.018631137119596
  11     -0.25945035590188
  12    -0.078335605609869
  13    -0.053931727196449
  14     -0.35226207996732
  15    -0.099277365763474
  16    -0.071187875765829
  17    -0.016516900151703
  18    -0.0030543006776065
  19    -0.0020821705364333
  20      0.02778673893587
  21    -0.0032020843974134
  22     0.007441863006955
  23    8.7059762101849e-06
  24    6.663651847043e-05
  25    -0.011855466987188
  26    -0.00019883296580596
  27    -0.056151867653292
  28     -0.11547667481847
  29      0.28045961659166
  30      0.15274420515237
  31    -0.015218102769067
  32    0.0048598836764138
  33    -0.014438926303552
  34    -0.019396284332846
  35    0.0063970609432289
  36     -0.01835063419406
  37     0.057648836817441
  38    -0.016604263150606
  39     0.053343367349829
  40     0.054294981231881
  41    -0.024559499474912
  42     0.049439044959057
  43    -0.0068399285078629
  44    0.0042572443157444
  45    -0.00031980264193395
  46     0.013112762775453
  47    -0.0016720400551347
  48    -0.0081431384162015
  49    0.0042582829674453
  50    0.00019992763068361
  51     0.010054028413278
  52    -0.0018976913634824
  53    -0.010999312041608
  54    -0.022271829581582
  55     0.057221416272168
  56      0.01905109750811
  57    -0.010961422616227
  58     0.013388394361331
  59    -0.0004225501673525
  60    -0.013464622001395
  61     0.018145248072158
  62    -0.00060661533313211
  63     0.038829708945128
  64    -0.052377649699426
  65    0.0012087890279408
  66     0.037187138735413
  67    -0.046546173362704
  68    0.0027923854525101
  69    -0.0012122032614209
  70    -0.00057833159814568
  71    3.442070107825e-05
  72    -0.0013756666280224
  73    -0.0033410243408199
  74    -0.001329947367878
  75    1.7989292488409e-05
  76    -0.00032396962106645
  77    -0.0045777755435682
  78    -0.0023215521109212
  79    -0.0067812530210179
  80    -0.014612181723435
  81     0.038468987971216
  82    0.0096598223269818
  83    -0.0081674893766112
  84    0.00025220465274388
  85    0.0080248717775906
  86    -0.0095789949494061
  87    -3.7903062395071e-05
  88     0.010524512462779
  89     0.030948702750568
  90    -0.00082628129840616
  91    -0.032614773523486
  92     0.020899750960905
  93    0.0023797852639176
  94    -0.022468563026368
  95    0.00034698345661184
  96    -0.0042053680875868
  97    -0.0011186091531996
  98    0.00056086779808683
  99    -0.00034122992358501
 100    0.0030207677768467
 101    -0.0030853983003305
 102    -0.001025512613469
 103    -0.0012363454139863
 104    0.00048868659706876
 105     0.033336169415077
 106     0.065172268573377
 107     -0.15397067416817
 108     -0.10042662080482
 109     0.040813649433803
 110    -0.0078645809299098
 111    -0.0072293808773607
 112     0.055220160892902
 113    -0.010177145806171
 114    -0.008535206477101
 115     -0.15174713248552
 116     0.028658719187775
 117     0.026410676345709
 118     -0.17045379973628
 119     0.027726030421412
 120     0.019135041312366
 121    0.0035607046325127
 122    0.0028753062112687
 123    -0.00049877693913885
 124    -0.0064219836205086
 125    0.0020203919499819
 126    0.0047002610452033
 127    -0.00034092225560917
 128    0.00028164525072835
 129    -0.0071831245690019
 130      0.00277364358661
 131    0.0051974415320326
 132    0.0086998986852761
 133    -0.015951061870559
 134    -0.025153181001914
 135    -0.016422741447903
 136    0.0045488282389647
 137    -0.0040870652886708
 138    -0.020464839886166
 139    0.0061669432878778
 140    -0.0051142865084018
 141     0.058328969403476
 142    -0.014549857433672
 143     0.014568198360165
 144     0.057873790738027
 145    -0.028159250919205
 146     0.013633607773846
 147    0.00058427018761687
 148    -0.0010434782863121
 149     0.001046888043976
 150    0.00072162677869282
 151    0.0044078298234512
 152    0.00071287901818932
 153    0.00038129005820355
 154    0.00099300992611868
 155    -0.0012769732887043
 156     0.004674293572531
 157    0.0024543036650249
 158     0.002191857411713
 159    -0.0029031402380783
 160    -0.012273765195968
 161    -0.016234161940469
 162    -0.0046426636072593
 163    -0.0013673009218225
 164    -0.020174569878253
 165    -0.0058894214020846
 166    -0.0012534116676671
 167      0.05658647626037
 168     0.016236474934909
 169    0.0068850383264839
 170     0.057192575381369
 171     0.017010301713218
 172    -0.0082073314143243
 173    0.00044120779262499
 174    0.0044297707854149
 175    0.0011400889310838
 176    -0.00038232479545815
 177    -0.00075615983531418
 178    0.0010126194826559
 179    0.0037482611182815
 180    0.0010599682263937
 181    -0.00023520251471271
 182    -0.00084850317295222
 183    -0.0033942175585994
 184    -0.00072579239406499
 185    0.0056873934729552
 186    0.0033583124248775
 187    -0.017898271047335
 188    -0.015931764196701
 189    -0.0037793092365535
 190    -0.018921149973801
 191    -0.016805289910072
 192    -0.0039466673613014
 193     0.056148129372745
 194     0.050147816443758
 195     0.011073545397648
 196     0.082162667207742
 197     0.069808030022721
 198     0.013559938089302
 199    0.0039827516442016
 200    0.0014025735342818
 201    -0.0012148599592257
 202    -3.7490957828071e-05
 203    0.0015979231617262
 204    -0.0019890955795213
 205    -0.00094801441668431
 206    0.00059163186375615
 207    -0.00015384327011875
 208    0.00025679890874257
 209    0.0041947163045907
 210    0.0094435782084921
 211    -0.017866616687745
 212    -0.025643798667852
 213    -0.007696008248085
 214    0.00051367661721696
 215      0.01529762209845
 216    -0.010172190383807
 217    0.00063564559322558
 218     0.018746032411125
 219     0.029954811189353
 220    -0.0020084755802924
 221    -0.057162539295431
 222     0.027549398159586
 223    -0.0012506152322373
 224    -0.049138279563568
 225    0.0019596880380603
 226    -0.0042344559707155
 227    0.00021932117989998
 228    -0.0022738275025563
 229    0.00073217957930945
 230    -0.0022866483089673
 231    -0.002737654020324
 232    0.00048649375165757
 233    0.00041680482742747
 234    -9.7559914745094e-05
 235    0.0048110701642087
 236     0.010054763761146
 237     -0.02421793459648
 238    -0.014996526732432
 239    0.0014107006096566
 240    -0.0058493158119416
 241    0.0013535580334113
 242    0.0017998482878087
 243    -0.0079550803063682
 244    0.0017749943623819
 245    -0.0055283152244859
 246     0.022841776833669
 247    -0.004683855546276
 248    -0.0046603130291429
 249     0.024791984195294
 250    -0.0062400453635603
 251    0.00084690711705018
 252    6.6829218435473e-05
 253    0.00030275086279866
 254    0.0013620972270909
 255     0.000521441974493
 256    0.00035334417557993
 257    -5.10476044315e-05
 258    0.00062366129442743
 259    0.00091969055511895
 260    0.00045164260379238
 261    0.0020166821920901
 262      0.00438194735068
 263    -0.010821822726161
 264    -0.0052739285045789
 265    0.0029143493962525
 266    0.0022720053624734
 267    -0.0025413885186297
 268    0.0034668891446218
 269    0.0030879994286733
 270    -0.0034056808252865
 271    -0.010918372932966
 272    -0.0081007349590045
 273     0.010385256531264
 274    -0.0085710997806369
 275    -0.010656733010469
 276    0.0083083526149117
 277    -0.00077803152156982
 278    0.00057920926948741
 279    0.00058690252360408
 280    -0.00010259196495017
 281    0.00024492007284266
 282    -0.00031223490329318
 283    0.0011899144331163
 284    0.0010180844572775
 285    0.00026017985242351
 286    -0.00024570082195088
 287    -0.0061423415416859
 288     -0.01232386648458
 289     0.028118468986036
 290     0.021283296234769
 291    -0.0072737446529721
 292    0.0031804487209176
 293    -0.00027292999291525
 294    -0.0099780910254741
 295    0.0039845468429241
 296    -0.00019083361481851
 297     0.027372482220136
 298    -0.011663729983154
 299     0.001411932020448
 300     0.032384847912217
 301    -0.011325700190923
 302    -0.0004987188181694
 303    -0.0005849816952345
 304    -0.00010693202544897
 305    -0.00023764156699977
 306    0.00091804840830852
 307    -0.00093891907797013
 308    -0.0010511067659474
 309    0.00028596382010116
 310    0.00035118002773895
 311    0.0018587355900686
 312    -0.0010637211434868
 313    -0.0049405738332811
 314    -0.0098165650693234
 315     0.022561090705939
 316     0.015582038017294
 317    0.0040106329792051
 318    -0.0055403883756349
 319    -0.0007101845466908
 320    0.0049078364083394
 321    -0.0077372650121939
 322    -0.00094451698336097
 323    -0.014597057659838
 324     0.020907796726231
 325    0.0026038189762312
 326    -0.013463719473484
 327     0.024043580824683
 328    0.0033289089207972
 329    -0.00034066117797943
 330    -0.00036238473446307
 331    0.00013654141602474
 332    -0.0004574936979776
 333    -0.00094064609478262
 334    -0.0010119651431548
 335    0.00022803869196002
 336    0.00039161918184203
 337    -0.0012377710162623
 338    -0.0016724897092908
 339    -0.011024890194886
 340    -0.002956072623807
 341     0.018196397159141
 342     0.023693552150962
 343    -0.099529564699877
 344    -0.015108980500633
 345      0.10927985350485
 346      -0.1048890857549
 347     -0.01554147843306
 348      0.11496813989359
 349      0.30542870697688
 350     0.045164573855527
 351     -0.33479200244009
 352      0.40691314597883
 353     0.070118325769908
 354     -0.44453613386458
 355    0.0045841741734723
 356    0.0047168250913452
 357    0.00088509343726235
 358    -0.0027901460508947
 359    -0.00063809780868593
 360    -0.0019453358759503
 361    -0.0032755957674118
 362    0.0013666688076187
 363    0.0024354268446636
 364    -0.0013278946025748
 365     0.027717719745126
 366     0.051996879680129
 367     -0.11795677407413
 368    -0.090450182191522
 369    -0.033463719883509
 370    0.0077774157119701
 371    -0.015855548487076
 372    -0.045979754208853
 373     0.009698430393491
 374    -0.018884870299264
 375      0.12279375930819
 376    -0.028126263088733
 377     0.056389213252275
 378      0.14962807840612
 379     -0.02425923823364
 380     0.049408873320694
 381    0.0036300363216691
 382    -0.0041424746985218
 383    0.0018682086515235
 384    -0.0052210415095119
 385    0.0026969122432227
 386    0.0017953016055312
 387    -0.0047947950879451
 388    -0.0025026590636864
 389    -0.0054674012699401
 390    0.00068132442644552
 391     0.006572795596263
 392     0.012007882876995
 393    -0.027678919266773
 394      -0.0234429552476
 395     0.016450808901118
 396    -0.0068836460236226
 397    -0.018282753135129
 398     0.020395195319056
 399     -0.01002756214692
 400    -0.022662368736105
 401    -0.059806511672836
 402     0.025526241909382
 403     0.066442745215011
 404    -0.054399036248442
 405     0.038483212018906
 406     0.060791110149388
 407    0.00061129397207726
 408    0.00032449009577531
 409    -0.0054333758232482
 410    0.0013390449410906
 411    0.0047690752503992
 412    0.0013221415949578
 413    -0.00069756860299829
 414    -0.0048369831402559
 415    0.0023023588219924
 416    0.0044094969522389
 417    -0.066169593277967
 418      -0.1384370836555
 419      0.33255678514909
 420      0.19495252006687
 421    0.0093930586992615
 422    0.0019943746736391
 423    0.0092858476488911
 424      0.01170570158244
 425    0.0028860832395507
 426     0.011666715246852
 427    -0.035183030787983
 428    -0.0058238461426917
 429    -0.035217119481996
 430     -0.03117836626094
 431    -0.015335880022423
 432    -0.031575282132888
 433     0.019010639497121
 434    0.0036592379844039
 435    0.00040243379760462
 436    -4.9204581726177e-05
 437    2.9172703421964e-06
 438      0.01406072139471
 439    0.0042918834947609
 440    0.00041386401770279
 441    -0.00083421216950709
 442    -0.00015528912018842
 443    -0.0081778089535438
 444    -0.013832775319841
 445     0.034185667203622
 446     0.018448889651196
 447     0.011070630816328
 448    -0.0082579448296388
 449    -0.013000004517022
 450      0.01372424945601
 451    -0.011069678403379
 452     -0.01621703951732
 453    -0.040211345180922
 454      0.03106694657049
 455      0.04694297175726
 456    -0.038478274006839
 457     0.033036979717319
 458     0.045954391670023
 459    -0.00014844102527221
 460    -0.00043278159243317
 461    0.0038898920899235
 462    -0.00082395441103229
 463    -0.0033891864497932
 464    -0.0018510395743876
 465    0.0013907848544688
 466    0.0039007346865972
 467    -0.0031808264052819
 468    -0.0034131248873431
 469      0.03283193220177
 470     0.061964299190989
 471     -0.14205081734115
 472     -0.10520153289497
 473     0.014168233491546
 474    0.0062175041689609
 475     0.040413467293822
 476     0.016877499949512
 477     0.007511281572248
 478     0.055343878346635
 479    -0.050447329432138
 480    -0.022715311478999
 481     -0.14873084916395
 482    -0.044085880866439
 483    -0.015954571804766
 484     -0.17790619018194
 485    -0.007880233168364
 486    -0.0038048953954729
 487    -0.002360626265202
 488    0.00034171118198279
 489    -0.0015504389631474
 490    -0.0070911353252148
 491    -0.0039885919141046
 492    0.00030452025747366
 493    -0.00075273272641087
 494    0.0027616799253159
 495    -0.030821975824488
 496    -0.0058336306377314
 497      0.04904672228236
 498     0.047306296005254
 499    0.0054606236855188
 500    0.0044366857437035
 501     -0.10576943538771
 502    0.0060563782713027
 503    0.0047764824190191
 504     -0.11134245845448
 505    -0.019037423533786
 506    -0.014728803561139
 507       0.3236964124798
 508    -0.017565303377376
 509     -0.01563862994174
 510      0.43121118997036
 511     0.026250128698356
 512    -0.0055799712917973
 513    0.0047868514209531
 514    -0.004317506632644
 515    -0.0005816889930903
 516    -0.012259531659892
 517    0.0011820054595184
 518    -0.0012580160745024
 519    0.0017654939834929
 520    -5.9436076937765e-05
 521    -0.003501735450481
 522    -0.008788100388366
 523     0.023480819711519
 524    0.0038510204221958
 525    0.0077900281836323
 526    0.00034669173299522
 527     0.016601191760034
 528    0.0099688733790191
 529    0.00049190793320015
 530     0.020396992451231
 531    -0.030233422044675
 532    -0.0015387388111522
 533    -0.057997495374799
 534    -0.019808998508251
 535    -0.0011574324643371
 536    -0.056865940559923
 537    -0.0011458433658156
 538    0.0042163691246983
 539    0.0003890960516465
 540    0.0010659288527283
 541    4.8244457112283e-05
 542    -0.00093641920460902
 543    0.0049083249398477
 544    0.0012929608000592
 545    0.0012365589729003
 546    0.00055878766835793
 547    -0.0039096529937355
 548    -0.0080242882398958
 549      0.02190779273384
 550    0.0027760336882025
 551    -0.00092668660966341
 552    0.0051991366022839
 553     0.014362408600792
 554    -0.0011987398250157
 555    0.0069120945520751
 556     0.017770789736072
 557    0.0037736591161001
 558    -0.020731482167154
 559    -0.052379289890375
 560    0.0024828364901145
 561    -0.014431549710267
 562    -0.047522188777621
 563    9.3977077018524e-05
 564    -0.0006497217416923
 565    0.0043800622479681
 566    -0.00041531871646408
 567    -0.00043726970550766
 568    -0.0022128244800279
 569    0.00028030709906426
 570    0.0037289692786045
 571    -0.0018505886984505
 572    -0.0001077005730347
 573      0.03741321233088
 574     0.071598322772989
 575      -0.1694288445847
 576     -0.10923752380926
 577    0.0070774596659392
 578    -0.0077775127542117
 579    -0.045609358048791
 580    0.0085323111805229
 581    -0.010126625514728
 582    -0.061897047937377
 583    -0.025719288305884
 584       0.0276220607168
 585       0.1686524389925
 586    -0.020603501013638
 587     0.032463722504929
 588      0.19159470299045
 589    -0.0079857218002639
 590    0.0032711845534302
 591    -0.0019715394514836
 592    -0.00031829183148818
 593    0.00074979880690564
 594    -0.0089629177994302
 595    -0.0014121139788589
 596    -0.0032150893739031
 597    0.00081749801237836
 598    -0.0013175397620924
 599    0.0021446293805115
 600    0.0030582350138725
 601    -0.0060263179919099
 602    -0.0094854625862066
 603    -0.00038473312265923
 604    0.0027702973949797
 605      0.01829555180765
 606    -0.00057354702594531
 607    0.0038576502812884
 608     0.022887206684597
 609    0.0016680223806842
 610    -0.0085409436794703
 611    -0.065306933308913
 612    0.0013380751229346
 613     -0.01871239942813
 614    -0.064798888508678
 615    0.00097295955727379
 616    -0.00084694547492235
 617    -0.0051079022427063
 618    0.0010519674036317
 619    0.00011165490261761
 620    -0.00069548627452312
 621     0.001661015193882
 622    -0.0054005053894097
 623    -0.00016429969924257
 624    0.00052050227356826
 625    0.00096897233928756
 626    -0.00049990798470721
 627     -0.01922422539758
 628    0.0021000086354513
 629    -0.0034357885209481
 630    0.0015188024776563
 631    0.0016118933709652
 632    -0.010303962551199
 633     0.005183182605079
 634    -0.00010350565655161
 635    -4.8798031170603e-05
 636    -0.00011745721251317
 637    -8.5505988819763e-05
 638    0.00030389884671139
 639    0.00012284418151443
 640    -0.0014765099354426
 641     0.011722733832366
 642    -0.00064530191888559
 643    -5.9442579154551e-05
 644    -0.0025151032611953
 645    -0.00015287406475251
 646    0.0047230480287197
 647    -0.0019887350687688
 648    6.6556522691176e-05
 649    -8.0311646635583e-05
 650    0.0002379777395609
 651    1.6559975590059e-05
 652    -0.000223409421318
 653    0.00067170985043933
 654    6.1486651482714e-05
 655    0.00018371932067486
 656    0.0001119290608728
 657    0.00038462582692816
 658    0.0022255256016889
 659    0.0005380726109894
 660    -3.3794217611389e-06
 661    0.00029120389140495
 662    0.00022278642133126
 663    -0.0064534330998937
 664    -0.0071188892747896
 665    6.8277678501138e-05
 666    -0.00013207358510941
 667    0.00062606305074188
 668    -1.5838548198351e-05
 669    -0.0029956726276035
 670    -0.00010627614443697
 671    -0.00034931833543953
 672    0.00015642173952298
 673    -0.0023956029223065
 674    0.0066028381915994
 675    -0.00046904959195233
 676    -0.00022655986361758
 677    0.00048221504540402
 678    -0.003147258871321
 679     0.016477106959328
 680    0.00041486586164728
 681    0.00031940079864253
 682    0.00020372646762854
 683    0.0019370370437513
 684    -0.0038164212945368
 685    -0.017372975421263
 686    -0.00031186358773971
 687    0.0038077185659851
 688    0.0078869502518024
 689    -0.00018166045275745
 690    0.0052305675209408
 691    0.0086629479682001
 692    -0.00012057986051901
 693    -0.00010028835119864
 694    -0.00021722563437801
 695    3.4288811613449e-05
 696    -5.5718409590181e-06
 697    0.00094637013822939
 698     0.001315797101476
 699     0.010450542451885
 700    -0.00075586904210456
 701    0.00072572737919527
 702    0.0025872684612344
 703     0.001216465552748
 704    -0.001138119747288
 705    -0.0010877232761081
 706    -3.9247105485721e-05
 707    -0.00017673125140374
 708    -6.5929146415651e-05
 709    4.189634976052e-05
 710    -0.00014211365889047
 711    0.00036455605707878
 712    -0.007216894134038
 713    7.9796611823695e-05
 714    0.00018206767075479
 715    -6.3377390453096e-05
 716    0.00074560963159139
 717    -0.0031773446414262
 718    -0.00032329324364047
 719    -0.00019343904134405
 720    0.00025450905526907
 721    -0.0030040998213444
 722    -0.0018509541121519
 723    6.9008977462125e-05
 724    0.00026470052693914
 725    0.00025498531111051
 726    -0.0044591774250843
 727     0.015644105309561
 728    -0.00027753717869268
 729    -0.00045748109903435
 730    -0.00031515820635739
 731    0.00049180767578927
 732    0.0029168707015253
 733    4.6043314184359e-05
 734    6.1179412024593e-05
 735    0.0002514572586593
 736    0.0014831101010061
 737     0.003013402424504
 738    0.00010234791643068
 739    0.00021808192410804
 740    -0.00011781255911795
 741    5.167765934573e-05
 742    -6.0379631974316e-05
 743    -0.00059176968348802
 744    -0.00011053778904412
 745    -8.7467921977434e-06
 746    8.1581044318039e-05
 747    -0.00015648123102846
 748    0.0001431145099613
 749    -0.0002183673844139
 750    -2.6294767867821e-06
 751    1.0150574558026e-05
 752    -4.6731359559309e-06
 753    -1.6454115243506e-05
 754    -9.1086032045292e-06
 755    2.4252048752952e-05
 756    0.00016518976660732
 757    -0.0010677043684627
 758    0.0010267969353021
 759    0.0005958289634072
 760    0.00015922478029868
 761    -0.0017159116068962
 762    -0.0006989283885226
 763    -0.00030235194823043
 764    4.712759455992e-06
 765    3.1090162754536e-05
 766    4.6515198617175e-05
 767    -2.1570938947605e-05
 768    4.7110968769834e-05
 769    0.00030277156349229
 770    -0.0022734880903178
 771    5.6644370969872e-05
 772    -7.0234762347891e-05
 773    2.3565826143606e-05
 774    -0.00059047964539263
 775     0.002421992102443
 776    -0.00013963489871674
 777    0.00012223626653391
 778    4.8781455410026e-05
 779    -0.0003633431133232
 780    0.0022041807810902
 781    -0.00011766528611124
 782    -1.9410526837708e-05
 783    -3.462749555531e-05
 784    -0.00011084217463604
 785    -8.795362506076e-05
 786    -2.5454720245072e-05
 787    1.3265857345461e-05
 788    -7.1693976126569e-06
 789    -4.8648485653305e-05
 790    0.00059454461789627
 791    -2.0409661628589e-05
 792    -4.1284670715136e-05
 793    -2.8283921016723e-06
 794    0.00011452533087013
 795    -8.1287519248664e-06
 796    -3.3861999468557e-06
 797    -1.1796817515022e-06
 798    1.8361413300428e-05
 799    0.0004328485484318
 800    0.00025751851794829
 801    -0.008151488217765
 802    0.00067662610994586
 803    -0.001001345938727
 804    -0.00012334719539342
 805    0.0027598275325881
 806    -0.0010623927834407
 807    -0.00086943308963635
 808    0.00032912721546017
 809    0.00011795378304262
 810    -5.6690874464042e-05
 811    -7.5578832988181e-07
 812    1.5909125466243e-05
 813    0.0011393235723542
 814    0.0057167874528925
 815    -0.0086539548827616
 816    0.0025300957175688
 817    -0.0015753345368336
 818    -0.0061147552323713
 819    -0.0070342807566808
 820    -0.003722763914901
 821    0.0047966750625704
 822    0.00068794523261794
 823    0.00028668094972611
 824    -0.00019190532586297
 825    -0.00025357968878986
 826    -0.0004726348494275
 827    0.0055086641885958
 828    0.0013880628039622
 829    0.00018285272086383
 830    0.00070443322259334
 831    0.00021643965266069
 832      0.01094724609897
 833    -0.0045747900389868
 834    0.00015527022302646
 835    0.00063682601552758
 836    0.00035331870183817
 837    0.00034109735231751
 838     0.015295721164336
 839    -0.00087320384192091
 840    -0.00019001982069897
 841    -0.00014718511277412
 842    7.4899621508141e-05
 843    0.0030184542408889
 844    0.0002743649400576
 845    5.0453148588866e-05
 846    0.00010079253732157
 847    0.00066374836580212
 848    -0.0005745869794955
 849    -0.00020747946957514
 850    -4.2131801515908e-05
 851    0.00013886164119986
 852    0.00031409406589635
 853     0.003696890066156
 854    -0.00012281920485686
 855    2.1527868136554e-05
 856    6.6828333883858e-05
 857    -0.00022023612684448
 858    0.0025546099725679
 859    0.0029821591802086
 860    0.00052247969416046
 861     0.001656671194467
 862    -0.0012607027250284
 863    0.0014336626410163
 864    0.0020352178204753
 865    0.00042919920225378
 866    0.00027176826926501
 867    0.00024531071927124
 868    7.5514477709621e-05
 869    0.00016655710151469
 870    -0.0003369999176795
 871    0.0034474337111825
 872     0.012689613269079
 873    -0.0042711832894238
 874    -0.005143336711257
 875    -0.0050433939206576
 876    0.0027107718024268
 877    0.0059938443402378
 878    0.00017211375971465
 879    -0.00083981028521468
 880    -0.00043827053591079
 881    0.00037873164029674
 882    -0.00010176633839416
 883    -0.00044239233085497
 884    0.00077689255616508
 885    0.0085908199777465
 886    0.0025146932911717
 887    -0.00010012074329966
 888    0.00033418686898422
 889    0.00033651619136358
 890    0.0026515304013738
 891    -0.00051448822126588
 892    0.00053822287177113
 893    0.00012145701999407
 894    -0.0008131729096098
 895     0.017962628165036
 896    -0.0092157527403501
 897    0.0010000705571915
 898    0.00012636685117699
 899    -0.00078179482433041
 900    0.0010351060766909
 901    0.0022283038602189
 902    0.00023527925870933
 903    0.00027849637371602
 904    -0.00041345749501718
 905    0.0044323428073326
 906    -0.0059369323141227
 907    0.0002823936172657
 908    0.00013930904935814
 909    0.00074445851428929
 910    0.0062048328412681
 911    -0.0091923629786243
 912    1.8014420424846e-05
 913    0.00024826001391905
 914    -0.00056918399916485
 915    0.00054726812400032
 916    -0.0027862163334517
 917    -0.0056084465931196
 918    -0.0011811898243999
 919    -0.0012818780078017
 920    -8.7579186046066e-05
 921    -0.00096154239758729
 922    -0.00063805239227112
 923    0.00066157360572586
 924    -4.661386729303e-05
 925    7.069374586269e-05
 926    8.6579244177314e-05
 927    3.5180161797312e-05
 928    -8.2687957639193e-05
 929    -0.0010979892743995
 930    -0.0034294512909576
 931    -0.0061955250792193
 932    0.0024483592019597
 933    0.0037985816018716
 934    0.0022056823865137
 935    -0.0088114743355735
 936    -0.0080488417145478
 937    -0.0029801352904244
 938    8.6882897109102e-05
 939    -0.00021032095998255
 940    -0.00040615498076591
 941    6.7222923353831e-05
 942    -0.00016097171974093
 943    -0.004485089390434
 944    -0.0037005484121594
 945    -0.00012040420081527
 946    -0.00081224786056642
 947    0.00012467215542693
 948    -0.0057846358155711
 949     0.017085131983671
 950    -0.0011674086057002
 951    -0.0010496811399375
 952    0.00029208271810064
 953    -0.0038461106507881
 954    -0.00048311842983871
 955     -0.00100694754072
 956    5.0935908747573e-06
 957    0.00054244834320136
 958    -0.00029085525286352
 959    0.00082978404698887
 960    -0.00013730959811134
 961    -0.00014367911303232
 962    4.2351382590685e-05
 963    -0.00069881640938091
 964    0.0023967340941365
 965    -0.00020050301287269
 966    -2.6444197861018e-05
 967    -0.00014874193069257
 968    0.00028267156358436
 969    0.00031158799475856
 970    -7.5591211059788e-05
 971    -3.8651033066058e-05
 972    0.0001107620002229
 973    0.0014851215011156
 974    -0.002421683835629
 975    -0.012514942499189
 976    -0.00095902110256959
 977    0.0028221491441022
 978    0.00088323117749997
 979    0.0027712516250417
 980    -4.9035796418228e-05
 981    -0.0030622629484251
 982    -0.0001208806264494
 983    -0.00013036943492228
 984    -0.00029625473094797
 985    -5.2570276388751e-05
 986    0.00032055743580986
 987    0.0016221268008554
 988    0.0049717952276129
 989    0.0036286823516759
 990      0.00261524199572
 991    0.0049558740083214
 992    -0.0019117166430078
 993    -0.00099331460962351
 994    0.0012415744308045
 995    -0.0049099700631193
 996    0.00010458653028463
 997    -2.3670602932412e-05
 998    4.2026145342834e-05
 999    2.1643666479621e-05
 1000    9.2249177553993e-05
 1001    0.0092604089782658
 1002    0.0053987154560079
 1003    0.00018355395146984
 1004    0.00067635019581247
 1005    -7.9225660046279e-05
 1006    0.0032250677161943
 1007    -0.0022532154879902
 1008    6.7925448840467e-05
 1009    -0.00022487008745079
 1010    0.00032565088418159
 1011    -0.0018075999719008
 1012    -0.0039401244592744
 1013    -0.00033592600091966
 1014    8.1674292081481e-05
 1015    0.00020670967301578
 1016    -0.0036084987996273
 1017    0.00055631478863485
 1018    -0.00012935235226337
 1019    -0.00026743388528047
 1020    -0.0007161160629136
 1021    0.00023234757342818
 1022    0.0064866861799422
 1023    -0.00017131508472909
 1024    -4.3308499893458e-05
 1025    0.00049771741487789
 1026    -0.00080404487103829
 1027    0.0013806865776766
 1028    -0.0003994044698061
 1029    -0.00013739282706885
 1030    0.00020780364691894
 1031    -0.0028409217245321
 1032     0.013028574210975
 1033    -0.014906167038161
 1034    0.0030608612384321
 1035    -0.010830921935561
 1036    -0.0018915666945063
 1037    0.0061429118657795
 1038    -0.003312201462799
 1039    -0.0054440364475934
 1040    0.0002300754196804
 1041    0.00038363207023427
 1042    -0.00012855663905465
 1043    0.00036792267350392
 1044    -0.00071971596529135
 1045    0.00089816424591312
 1046    0.0020297978533558
 1047     0.012511049776719
 1048    -0.0014282255236832
 1049    0.00080479268834478
 1050    0.0026918588685877
 1051    0.0034123729203832
 1052    -0.00030505736550508
 1053    -0.0065917933040555
 1054    -0.00020698209257695
 1055    -0.00015824226081894
 1056    3.9196738630891e-05
 1057    -1.7884213895324e-06
 1058    -0.00028878301763763
 1059    0.00079321758662517
 1060    0.00015487137710621
 1061    -9.3432826013021e-05
 1062    -3.330580572714e-05
 1063    0.00014607991981608
 1064    0.0026757895675983
 1065    -0.010373070734984
 1066    -0.0004436199862107
 1067    -0.00013474558760484
 1068    -0.00019459172271476
 1069    0.00025776171564067
 1070    0.0038079650392686
 1071    7.4336589836515e-05
 1072    -0.00036514051024289
 1073    -0.00036146994355241
 1074     0.010875679119254
 1075    -0.0014546921887129
 1076    0.00061570443548173
 1077     -0.00114931593301
 1078    0.00078206549742232
 1079     0.016967453604466
 1080    -6.2385194355188e-05
 1081    -0.00033619084539948
 1082    -0.00077402527378558
 1083    -0.00070045890951815
 1084    -0.0012228605742911
 1085    -0.004428376393456
 1086    -0.00016606171886672
 1087    0.00033831592981767
 1088    0.00023737375736835
 1089    0.0020031643323652
 1090    -0.0050526014579365
 1091    -0.014368317337352
 1092    -0.0052082310662156
 1093    0.0025896724905238
 1094    -0.00098768288497266
 1095    -0.0032233488924803
 1096    -0.0015844851899337
 1097    -0.007244134311012
 1098    6.1870364029856e-05
 1099    -0.0001940936210355
 1100    8.3988884972836e-06
 1101    -0.00010638615359492
 1102    -0.00013512559574273
 1103    -0.00014428887203453
 1104    -0.0014130214006734
 1105       0.0026514732588
 1106    -0.00088973306342985
 1107    -0.0013089930532009
 1108    0.00019572013828936
 1109    0.0019483285160031
 1110    0.00057482468937826
 1111    -0.0019531342049186
 1112    -4.0376676146652e-05
 1113    1.7920875979735e-05
 1114    -0.00012412890559812
 1115    0.00011826492721678
 1116    0.00018248192146047
 1117    -0.0060936639895273
 1118    -0.0046251567262704
 1119    -0.00038196721030255
 1120    0.00047425128696541
 1121    0.00055449262735063
 1122    -0.0020483708774031
 1123    -5.5650291305399e-06
 1124    5.3547071325009e-05
 1125    0.0002445418966371
 1126    -7.4125377551967e-06
 1127    -0.0010188932219719
 1128    -0.00030033990866233
 1129    -8.7059044710927e-05
 1130    -5.9085609593337e-05
 1131    0.00018601000842043
 1132    -0.002331236503324
 1133    0.0064832822644532
 1134    2.6732267601325e-05
 1135    0.00028193201465808
 1136    0.00031028191662879
 1137    0.0030638694701443
 1138    0.0061205064934541
 1139    -0.00013834792344247
 1140    -0.00023738502051686
 1141    1.0122273969982e-05
 1142    -0.0048891317527086
 1143     0.012388535939347
 1144    0.00025925240208196
 1145    -0.00023251121540611
 1146    7.9466751898992e-05
 1147    0.0011406811659057
 1148    -0.0045613875916555
 1149    -0.014316982522295
 1150     0.001124504923123
 1151    -0.001879229706085
 1152    -0.001115658492557
 1153    0.00077681027361803
 1154    0.00097464930488044
 1155    -0.00074226865388347
 1156    1.9021012320438e-05
 1157    -2.0681811384702e-05
 1158    -1.6397532892035e-05
 1159    3.8311159038348e-05
 1160    2.5627489205401e-06
 1161    -0.0012613909757085
 1162    -0.0045422358833875
 1163    -0.0096503646716439
 1164    -0.00020542153692358
 1165    0.0060987694088089
 1166    -0.0002500134190884
 1167    0.0039070786698147
 1168    -0.013402824750017
 1169    -0.0030204678749023
 1170    6.3721577809786e-05
 1171    -0.00039439393742569
 1172    8.2390445528058e-05
 1173    7.6229330070528e-05
 1174    -1.2855994758707e-06
 1175    -0.010324958557999
 1176      0.01390242825711
 1177     0.001170205373991
 1178    -0.0022823327467645
 1179    -0.0006376213397521
 1180    -0.0074140503155971
 1181    -0.0012656947066302
 1182    0.0014229421903897
 1183    9.2526811360762e-05
 1184    -0.0012889440895283
 1185    -0.0099822736131505
 1186     0.011065042043682
 1187    0.00050877101347334
 1188    -0.002223446650387
 1189    -0.0011694652884302
 1190    -0.00038114878741164
 1191    0.0045333350007598
 1192    0.00038140257898381
 1193    -0.00012107365361947
 1194    4.7964026859906e-05
 1195    -0.00031389366013108
 1196    0.0043597726938884
 1197    -2.459652387773e-05
 1198    -0.00011598650016227
 1199    -0.00037629484186349
 1200    -0.0012290184969374
 1201    0.0050101259198281
 1202    -9.4624353101715e-05
 1203    -0.0004316853265547
 1204    7.315847470415e-05
 1205    0.00032647842294028
 1206    0.00059776252255068
 1207    -0.0041380222979834
 1208    0.00045297361739845
 1209    -0.0004795088958042
 1210    -0.00065101006216311
 1211     0.002401135131312
 1212    -0.0012253520210069
 1213    -0.0021721689025435
 1214    -8.8153989711533e-05
 1215    4.1409454266652e-05
 1216    -4.9672525417793e-05
 1217    0.00029333966008119
 1218    0.0001643865488454
 1219    0.0018827429428311
 1220    0.0081942722128304
 1221    -0.0075093444495138
 1222     0.008153867541246
 1223    -0.0023933999944545
 1224    -0.0037608081613722
 1225    -0.0093228641857106
 1226    -0.0036862370199262
 1227    0.0085603289434798
 1228    -0.00067956616855864
 1229    0.00039450831630702
 1230    0.00072774122285363
 1231    0.00053568907216235
 1232    0.00021552730068675
 1233     0.013007128152058
 1234    -0.0077281352901499
 1235    -0.00068354396682865
 1236    0.0010133034615452
 1237    0.00010354103463684
 1238     0.010443348488677
 1239    0.0018481397559861
 1240    -0.00059954790261618
 1241    0.00093148494005784
 1242    0.00034059339209039
 1243    0.0022403591999083
 1244     0.015768118342134
 1245    7.8638179638655e-05
 1246    -6.0300258021603e-05
 1247    0.00060250913350023
 1248    0.00094709222454291
 1249    -2.791432291201e-05
 1250    -0.00025035617418158
 1251    0.00013956353226068
 1252    -0.00012962006874685
 1253    0.00098889721412891
 1254    0.0013080765095704
 1255    4.8627649121374e-05
 1256    4.8439475208885e-05
 1257    3.9980723995169e-05
 1258    0.00089864046767085
 1259    -0.0011185707758582
 1260    -0.00021856142833263
 1261    2.0845528081921e-05
 1262    9.7087992102359e-05
 1263    0.00059214659218234
 1264    0.0002404534697372
 1265    -0.011229661557006
 1266    -0.0011035696320369
 1267    0.0013283613979875
 1268    0.0013642754852082
 1269    0.0043418978577272
 1270    8.9947990228519e-05
 1271    -0.0020528895328956
 1272    2.6787339476917e-05
 1273    -1.792131653449e-05
 1274    -0.00031747736287699
 1275    -0.0001557153244217
 1276    0.00015321800377255
 1277    0.0010022772934351
 1278    0.0037078671184617
 1279    0.00047849982949081
 1280    0.00082752763868051
 1281    0.0045856723671632
 1282    -0.0017574726497059
 1283    0.0042801428600568
 1284    0.0011749766358319
 1285    -0.0019330430466844
 1286    -8.3982300434715e-05
 1287    -4.0783128975419e-05
 1288    -0.00028116389601261
 1289    0.00018392973750607
 1290    -9.3395114783197e-05
 1291    0.0036864907796114
 1292    -0.0009558254605063
 1293    -0.00037544874035925
 1294    -0.0002710668772881
 1295    -0.00029847236077451
 1296     0.010419531146937
 1297    0.0072474192350593
 1298    -0.00022792383403335
 1299    0.00027275029036866
 1300    -8.8531010732555e-05
 1301    -0.001183752859344
 1302    -0.0021628447939792
 1303    -4.7818189263995e-05
 1304    4.1709127642484e-05
 1305    0.00027038525249804
 1306    -0.0025987527659214
 1307    0.0012688774024495
 1308    0.00053322434926584
 1309    -8.7066599381748e-05
 1310    0.00037097327219114
 1311    -0.00044630115447303
 1312    -0.0007143500289803
 1313    -0.00018033552710868
 1314    -0.000233029526906
 1315    0.00041247551861083
 1316    -0.0003760435538554
 1317    0.0053777323457098
 1318    -0.00058010308464025
 1319    -8.3537816928493e-05
 1320    0.00015697160511669
 Sym= A
 Ene=               0
 Spin= Alpha
 Occup=    0.00000
   1    -0.019765234228604
   2    -0.0035945222421522
   3     0.032023511754218
   4     0.029360488820309
   5      0.06136339539407
   6     0.017778442423143
   7    -0.011695261746899
   8     0.064793351145003
   9     0.018618599231006
  10    -0.012717719361743
  11      -0.1875484032166
  12    -0.056184227466899
  13     0.034565629868636
  14     -0.25980068274825
  15    -0.072927703408683
  16     0.046518079838634
  17    -0.019578801362134
  18    -0.00052260685400649
  19    -7.1591589175625e-05
  20     0.020558391080692
  21    -0.002376537544298
  22    0.0079191677049877
  23    -0.00035903082244429
  24    2.9260010804445e-05
  25    -0.0090371603195382
  26    -0.00049657975807019
  27    -0.042706380327325
  28    -0.089700863948921
  29      0.21283489525163
  30      0.13116703296932
  31    -0.017071761547495
  32    0.0030008426242392
  33     0.017139087076506
  34    -0.022052274402464
  35    0.0040253115721313
  36     0.022314623021956
  37     0.063175672131122
  38    -0.010733006121352
  39    -0.061695283321251
  40     0.064620995435323
  41    -0.014141498497935
  42    -0.068215642845037
  43    -0.0061912533582172
  44    -0.0036214707464863
  45    -4.5041346118772e-05
  46     0.010656619408454
  47    -0.00091129000609418
  48    -0.0039957182229425
  49    -0.0034228036069811
  50    0.0010991341214749
  51     0.007257164732287
  52    -0.0014541691592265
  53    -0.0069105321224538
  54    -0.014278855512777
  55     0.035073391536792
  56     0.016263473500975
  57    -0.0080776719131468
  58    0.0086943836242881
  59    0.0031151228087009
  60    -0.0098397185551068
  61      0.01183810844567
  62    0.0035538429254172
  63     0.028852912893425
  64    -0.033616341613305
  65    -0.011767027676763
  66     0.026388831604111
  67    -0.032659785839398
  68    -0.0073030647074095
  69    -0.0010364619303638
  70    -0.00020071833489523
  71    0.0011372100069269
  72    -0.00087417674401015
  73    -0.0025589634088173
  74    -0.00029671606379965
  75    -0.00021964199592549
  76    0.00040248508633141
  77    -0.0030330537951978
  78    -0.0017061935025373
  79     0.013360851352795
  80      0.02883704108811
  81     -0.06450259719304
  82    -0.055781110729363
  83    -0.020979165671408
  84     0.004694001907418
  85     0.015018279920763
  86    -0.026879735737362
  87    0.0056075506432594
  88     0.020127914170272
  89     0.076503026391091
  90    -0.018601906821881
  91     -0.05696988720937
  92     0.078009260825621
  93    -0.011285096489112
  94    -0.062089124676191
  95    -0.0057193218559027
  96    0.00056403730823907
  97    -0.0024971734752296
  98    0.00060186089352903
  99    -0.00041314542536343
 100    -0.0011086050567201
 101    0.0027523357125748
 102    -0.0038843692054601
 103    -0.0024548169696779
 104    -0.00045504725322953
 105     0.024139461023867
 106     0.047617218471554
 107     -0.11347641878184
 108    -0.071489098083063
 109     0.029274124501066
 110    -0.0056673349103369
 111    -0.00012998752835323
 112     0.039511911489672
 113    -0.0072473347315111
 114    -0.00027943253890547
 115     -0.10991325427073
 116     0.020646150626911
 117    0.00088760640208072
 118     -0.11921181129914
 119     0.019512812950433
 120    -0.00069545160253947
 121    0.0025993895304698
 122    0.00082576067090124
 123    -0.00025223529911279
 124    -0.0046661300916731
 125     0.001384506843845
 126    0.0034539913927865
 127    -0.0014850417040601
 128    0.00014451065916899
 129    -0.0049137920886961
 130    0.0022312873572502
 131    0.0036102795796483
 132     0.006861406126939
 133    -0.013173636944296
 134     -0.01739856634522
 135    -0.012090771799179
 136    0.0040012789708105
 137    0.00086042350527709
 138    -0.015192454384881
 139    0.0055036422200486
 140    0.0014188135383707
 141     0.043178409501926
 142    -0.013767995055485
 143    -0.0030820554790123
 144     0.042962050279423
 145    -0.021176129308173
 146    -0.0058261173423963
 147    0.00042748487557089
 148    -0.00051079628172489
 149    -0.00047330453880182
 150    0.00055902655377981
 151    0.0033596778983147
 152    0.00097711838320688
 153    0.00035609589424598
 154    -0.00039905123383792
 155    -0.00066232948244648
 156    0.0033693103426067
 157    -0.0068110028274012
 158    -0.014614620857378
 159     0.037295782563863
 160     0.014768421884921
 161    -0.0087262124167896
 162    -0.0010340326036554
 163    -0.010192682164909
 164    -0.010353764797558
 165    -0.0011897135090004
 166    -0.013588935860563
 167      0.03093762546967
 168    0.0037464568605407
 169     0.039625049332192
 170     0.026957074191619
 171     0.002009818779567
 172     0.034575141274622
 173    0.0020187346778454
 174    0.0018918661528341
 175    0.00033600671347575
 176    -0.00011189042667833
 177    -0.00024879447763196
 178    0.0026181889090292
 179    0.0028416128663451
 180    -0.00016542032620006
 181    -0.0007208431285493
 182    -0.0010814012422025
 183    -0.0014727420999112
 184    -0.0006085498241588
 185    -0.0015700676622296
 186      0.01511285261448
 187     0.090307946159859
 188    -0.091358126973991
 189     0.044058621225603
 190     0.095690325977738
 191    -0.096618560674195
 192     0.046673193314649
 193     -0.28284290326797
 194      0.28894508773901
 195      -0.1363618601071
 196     -0.39764824800198
 197      0.39997692964012
 198     -0.20360287558277
 199    -0.0085412477380774
 200     0.002640720977124
 201    -0.0093128681072612
 202     0.017886697536349
 203    0.0028098035585952
 204    0.0019224569642055
 205    0.0011796437426474
 206    5.9606795178426e-05
 207    -0.0088452209714627
 208    -0.0012529075739914
 209    -0.035889836850454
 210    -0.075607583355363
 211      0.17817312976875
 212      0.11562662476821
 213     0.012359622361553
 214     0.013440251665841
 215    -0.019287395511284
 216     0.016301484244895
 217     0.017116040642449
 218    -0.025015581130879
 219    -0.043678970756139
 220    -0.050326965325667
 221     0.069927409774438
 222     -0.05288639072303
 223    -0.048602985900996
 224     0.075719455224358
 225    -0.005678017652441
 226    0.00028934431890363
 227    -8.0926502475907e-05
 228    0.0092658779988554
 229    0.0031947837104979
 230    -0.0015856067152622
 231    -0.0019612614233826
 232    -0.0024010544691975
 233    0.0042219751746199
 234    0.0064119969217846
 235     0.026960539678143
 236     0.055947930504684
 237     -0.12852509796278
 238    -0.092600321522337
 239    -0.012816522472597
 240    -0.030545372028825
 241    -0.0016086134624938
 242     -0.01660201892464
 243    -0.042021638177643
 244    -0.0020654834833428
 245     0.048138513595156
 246      0.11891714887923
 247    0.0074089703595362
 248     0.050696693878659
 249      0.13440423531334
 250    0.00089483443675761
 251     0.003505161455132
 252    -0.00051967657886571
 253    -0.00077821497994983
 254    0.0062689995780729
 255    -0.0039200396908042
 256    0.0042766060492414
 257    0.0020909243417969
 258    -0.00020121148860995
 259    0.0045894215530368
 260    -0.0060162490031972
 261    -0.017008628974927
 262    -0.033663963724799
 263     0.079489969884462
 264     0.052969022979462
 265    -0.013230023191544
 266     0.017137985660009
 267     0.018159350235831
 268    -0.016657181263711
 269     0.022002761782543
 270     0.024631652022033
 271     0.048614325211265
 272    -0.063164839993463
 273    -0.070065144711559
 274     0.046715120906075
 275    -0.063104399706169
 276    -0.075886558274637
 277     0.002612762076258
 278    -0.0036382394361686
 279    0.0050001565670237
 280    -0.0007096584159852
 281    -0.00045069328710592
 282    0.0059128703630105
 283    -0.0050279596431823
 284    0.0064012495595125
 285    -0.0010965324490373
 286    0.00098546508472415
 287     0.032602160765531
 288     0.069317734626638
 289     -0.15910637690499
 290     -0.11440103858536
 291     0.040606150400699
 292      0.01006226305254
 293    -0.0014387875737531
 294     0.055426586519437
 295     0.013150160925825
 296    -0.001806503710893
 297     -0.15766225071321
 298    -0.036394163622179
 299    0.0051883196859129
 300     -0.16896568778822
 301    -0.040550546004554
 302    0.0057537510658573
 303    0.0039728414122505
 304    0.00012847379715948
 305    -9.6010509866891e-06
 306    -0.0074626022381585
 307    -0.0021051663230594
 308     0.005222363715751
 309    0.00078460997673182
 310    -0.0016806396032624
 311    -0.0085588230663497
 312    -0.0053658437426437
 313    -0.032580645102388
 314    -0.065724758875132
 315      0.15680358430542
 316     0.095132801884073
 317    -0.0062751618816731
 318    -0.038397700211946
 319    -0.016771375934721
 320    -0.0075327898054161
 321      -0.0520592182685
 322    -0.021789702686763
 323     0.022759404568741
 324       0.1469579936806
 325      0.06213607100718
 326     0.019123306902672
 327      0.15456450543853
 328     0.060967194179867
 329    -0.0020721663103202
 330    -5.7719802695269e-05
 331    0.0045400571413276
 332    -0.0054710324240049
 333    0.0015635746027827
 334    -0.0037137030671987
 335    0.00024720440307474
 336    0.0059529167183117
 337    -0.010082382857314
 338    0.0024799106401446
 339    0.0045459659105316
 340    0.00080814784892736
 341    -0.0079682980567739
 342    -0.0041888180955837
 343    -0.089207773870536
 344    -0.0052296719030703
 345    -0.079608945931117
 346    -0.093772112195708
 347    -0.0055042304797481
 348    -0.083621622004989
 349      0.27592649828347
 350     0.016517726221623
 351      0.24624659688242
 352      0.36570595043267
 353     0.022703401934341
 354       0.3286745842345
 355    -0.0002255227267172
 356    0.0011139503910834
 357    -0.0013478750421875
 358    -0.002617436215985
 359    -0.001011773572277
 360    -0.0016241177938553
 361    -0.00018635045445835
 362    -0.00015194889220466
 363    0.0025360570506221
 364    -0.00047164860190168
 365     0.027140197445154
 366     0.050751422343458
 367     -0.11790441045361
 368    -0.081750754215896
 369    -0.032342083174261
 370    0.0058593285579823
 371    0.0081664911562082
 372    -0.044163646021566
 373    0.0071511445550929
 374    0.0097385501951063
 375      0.12013283387712
 376    -0.022060580512961
 377    -0.029216102861615
 378      0.13865248332745
 379    -0.014672723504023
 380    -0.024935099204597
 381     0.003185745347764
 382    0.0017489526207224
 383    -0.00032391210638296
 384    -0.0050143426177496
 385    0.0023513902563669
 386    0.0031280298485574
 387    0.0036460028795498
 388    -0.00024335257657962
 389    -0.0055607881574152
 390    -2.9165635254082e-05
 391     0.002929549803452
 392    0.0058394380351951
 393    -0.014102977733742
 394    -0.007861462258269
 395     0.013503957895755
 396    -0.0037882749204803
 397     0.011817834220531
 398     0.017249135612645
 399    -0.0051149485670742
 400     0.015200316654478
 401    -0.049594476953933
 402     0.014425868932305
 403    -0.043335409806487
 404    -0.048558779137273
 405     0.014998967878664
 406    -0.043971221065416
 407    0.00073701547527912
 408    7.5059148513592e-05
 409    0.0037550328119757
 410    0.00026863199439003
 411    0.0042636044075704
 412    -0.0004180068278808
 413    0.0002201396512064
 414     0.003837011516201
 415    0.0019370626059222
 416     0.004054782222786
 417     0.037737863431596
 418     0.080417083455406
 419     -0.19029909475381
 420     -0.12043680790014
 421     0.022926308292649
 422    -0.0010084410367396
 423    -0.012376595392087
 424     0.029714117077493
 425    -0.0010729667180194
 426    -0.016170473476114
 427    -0.083894478637765
 428    0.0034504803469184
 429     0.046286829897548
 430    -0.087580976236573
 431    0.0031106772401514
 432     0.047354336113774
 433    -0.011269492651519
 434    0.0026231513492155
 435    0.0010348987757423
 436    0.00029319823380474
 437    -0.00066890661381315
 438    -0.0070208507294619
 439    0.0025825004211997
 440    0.00090208128359084
 441    -0.00077793229088282
 442    0.0015226899479303
 443    -0.0028220545152012
 444    -0.0054352922550947
 445      0.01185749149432
 446     0.010350345079607
 447     0.010613694481359
 448    -0.0040962756993121
 449    0.0097080042543032
 450     0.013211012308358
 451    -0.0054132818084982
 452     0.012120145760304
 453    -0.038331524279024
 454     0.014970202900702
 455    -0.035043488864875
 456    -0.036528845580239
 457     0.017033084100601
 458    -0.033672323085956
 459    -0.00082211185940741
 460    -9.1753991184052e-05
 461    -0.0024205209539115
 462    -0.00067773111627323
 463    -0.0027122084104072
 464    0.00062815831301592
 465    -0.00030623593348562
 466    -0.0039625009435165
 467    -0.0013191672183107
 468    -0.0040469921516046
 469    -0.024616747566121
 470    -0.046674599649196
 471      0.10746978031789
 472     0.077793475119343
 473     0.011076341812931
 474    -0.001933858521303
 475    -0.030070549572562
 476     0.013603504688724
 477    -0.0023827706212399
 478    -0.041006236594048
 479    -0.039690166158222
 480    0.0076837261062892
 481      0.11159881792873
 482    -0.037086267485095
 483    0.0030654179699755
 484      0.12938734544382
 485     0.005841632502778
 486    -0.0026081414627107
 487    0.0013392167289067
 488    -5.0542765205285e-05
 489    -0.00045486075605286
 490     0.005549774227996
 491    -0.0048058551966681
 492    -0.0013691638842572
 493    9.3090311482067e-05
 494    9.3299113053236e-05
 495    0.0041810033336635
 496    0.0007954669341317
 497    -0.006098105527944
 498    -0.0071295524870125
 499    -0.052152209199863
 500     0.012712525424862
 501     0.053853435203887
 502    -0.055161579789052
 503     0.013218407482714
 504     0.056725358438097
 505        0.158881246034
 506    -0.040798774333569
 507     -0.16456914252152
 508      0.20958710851989
 509    -0.051498924899844
 510     -0.21847624358346
 511    -0.021331344458801
 512    0.00012936786578739
 513    -0.002431040371883
 514    0.0096198823339133
 515    0.0017785819921894
 516    0.0093381934217624
 517    0.00010768274047499
 518    0.0003827774564816
 519    -0.0034032481355149
 520    -0.00069728954317671
 521     0.017697392276681
 522     0.034299140675529
 523    -0.082998150571703
 524    -0.047713016779099
 525    -0.022139428027269
 526    -0.0062702328413951
 527    -0.0048144425577244
 528    -0.030047698606005
 529    -0.0080699468046077
 530    -0.0054299718677778
 531     0.082658292292495
 532     0.022663402272343
 533     0.017149798129255
 534     0.089555349878673
 535       0.0235947604208
 536     0.013335349225934
 537    0.0020187456813056
 538    -0.00041187512652826
 539    0.00046108580591826
 540    -0.0033031360549126
 541    -0.001500350838981
 542    0.0029953756223898
 543    -0.0031984501826471
 544    -0.0015694285163345
 545    -0.0032300384559728
 546    -0.002531511660245
 547    -0.0045134440162239
 548    -0.0087075308006004
 549     0.019061468952083
 550     0.015522521842492
 551     0.006707947074243
 552    0.0057757963602804
 553    -0.0079396111330383
 554    0.0085846762214487
 555    0.0078333088521546
 556    -0.0097488702093848
 557    -0.023851249803506
 558    -0.020966579461006
 559     0.029311727828016
 560    -0.026142566082639
 561    -0.025561302659186
 562     0.025597141331334
 563    -0.00085886051531399
 564    0.00019007160079685
 565    -0.0025954403680758
 566    -0.00077480938090779
 567    0.0023024982962187
 568    0.00020218716883298
 569    -0.00022089985460887
 570    -0.0020160285006758
 571    -0.001362023593825
 572     0.001673498407136
 573    -0.020245683342953
 574    -0.039912915393095
 575     0.095123681009925
 576     0.058084569132862
 577    0.0045548174982822
 578    0.0018719603482904
 579     0.025827040438644
 580    0.0055432589529346
 581        0.002716269388
 582     0.034860950762009
 583    -0.015828703915308
 584    -0.0064613012821453
 585    -0.096832668528574
 586    -0.016430133957532
 587    -0.011226336503296
 588     -0.10339001084406
 589    0.0049022659518419
 590    0.00033993820753808
 591    0.00050324020271258
 592    4.3261882937006e-05
 593    -6.9331007750978e-05
 594    0.0049380478749974
 595    0.0031570111192342
 596    0.0010736607019409
 597    -0.00065090000814785
 598    0.0011329144591763
 599    0.0045372309295057
 600    0.0092308793288273
 601     -0.02223130875686
 602    -0.011325880309984
 603    0.0093316237100257
 604    0.0055014188252454
 605    -0.0091241936667181
 606     0.011457795884991
 607    0.0075161822049992
 608    -0.011679577466899
 609    -0.033710909882656
 610    -0.020932554618887
 611     0.032528311100762
 612    -0.030238386295517
 613    -0.021568858514652
 614     0.033852790151855
 615    -0.00015997578071278
 616    0.00023177248803903
 617    0.0025642367769085
 618    0.00077910788228666
 619    -0.0025596086108318
 620    0.0019950185770608
 621    -0.00053051815915554
 622    0.0027983037771611
 623    0.0011213686373028
 624    -0.0025020000892705
 625    0.00086789168473216
 626    -0.001556742560208
 627    -0.018529022108485
 628    0.0012124246487182
 629    -0.0030780952875717
 630    0.00089136511686637
 631    -6.7836793316474e-05
 632    -0.010308724229581
 633     0.003885016474925
 634    -7.4342113031184e-05
 635    2.6663859785725e-05
 636    -0.00025968986150153
 637    -2.0637082270364e-05
 638    0.00033608346671708
 639    -0.00080551808042231
 640    -0.0050386861710414
 641     0.011233811451639
 642    -0.0050769500221685
 643    0.0055331026536932
 644    -0.00039925545479902
 645    0.0059533479926897
 646    -0.0030013674439257
 647    -0.0071308880351868
 648    0.00018234683564052
 649    0.00024273707028047
 650    0.0001656721830474
 651    6.4621349839289e-05
 652    -0.00013682656821196
 653    -0.004461524082605
 654     0.011515103140527
 655    -0.00016060995715641
 656    -0.00035937025202569
 657    -5.3185829916257e-05
 658    0.00084963498333595
 659    -0.010830006574685
 660    -0.00025956598698314
 661    0.00035905374312262
 662    -0.00019196342117372
 663    -0.013305363964342
 664    -0.0035025345334414
 665    -0.00012723816050015
 666    -0.0008139902216628
 667    9.6489503989328e-05
 668    -0.00014479522029544
 669    -0.002967101485253
 670    -0.00017277543066403
 671    -0.00035611861046213
 672    4.8242216877323e-05
 673    -0.0026162409944432
 674    0.0048707400759296
 675    -0.00036016251288853
 676    -9.2155697404442e-05
 677    0.00025000801659352
 678    -0.0023144480395905
 679     0.014395452598347
 680    0.00046875168361475
 681    0.00016655779344878
 682    0.00018621209747749
 683    0.0029919051112642
 684    -0.0060735568451817
 685    -0.028489482808924
 686    0.00011693588991387
 687    0.0065274521280247
 688    0.00069992703172362
 689    0.0010602320186432
 690    0.0083978899626108
 691    0.00087715309605931
 692    -0.00042958697196016
 693    0.00021204890197289
 694    0.00016605323221042
 695    0.00016297166642526
 696    1.5532936124029e-05
 697    -0.00052261405268798
 698    -0.0032119137518088
 699    0.0075575083109492
 700    0.0015260137216591
 701    6.8180990880106e-05
 702    0.0042907291969516
 703    0.0039909744584035
 704    -0.0024351242628503
 705    -0.0089880850643086
 706    0.00011875091842655
 707    -0.00024594812802259
 708    -0.00062541457444055
 709    9.4613838880833e-05
 710    0.00027705843494061
 711    -0.010216787668237
 712    -0.0065914208099106
 713    -0.00014114494001018
 714    0.00094806843658216
 715    -0.0011328456183453
 716    -0.0031209637794079
 717    -0.006631693184939
 718    -0.00016303354202317
 719    0.00046188066772904
 720    -0.0004870884854967
 721    -0.0045352280622287
 722      0.01035521519839
 723    -0.00031243526643973
 724    -0.00039136007177769
 725    4.4603564068496e-05
 726    -0.0048608859236559
 727     0.016147520453632
 728    -0.00016666387298535
 729    -0.0002684912055793
 730    -3.832228625446e-06
 731    0.00071323354440547
 732    0.0030917504703795
 733    -0.00011474184491934
 734    0.0001720309533339
 735    -5.9077905460132e-05
 736    -0.0065075374316021
 737      0.02141963124131
 738    -0.00036696264336712
 739    5.3158158352103e-05
 740    -0.00017061799683282
 741    0.00079477219359368
 742    -0.0033877222775735
 743    -0.012039926891947
 744    -0.00088114494349894
 745    0.00083982495929362
 746    0.0010683969559957
 747    -8.2630068349992e-05
 748     0.000470651692946
 749    0.00088795830576577
 750    -4.0426081814324e-05
 751    1.7922125122216e-06
 752    -8.3505723757776e-05
 753    6.8030414389292e-05
 754    7.7904063041788e-06
 755    -0.0016141930743756
 756    -0.0045846287768517
 757    -0.011011862652692
 758    -0.0011537727560865
 759    -0.0012640032248644
 760    -0.0067499859210293
 761    -0.0013235763803251
 762    0.0068979647310835
 763     0.013928853556518
 764    -0.00016892456497251
 765    1.694411836452e-05
 766    6.2651708133173e-05
 767    -0.00017727366204175
 768    -0.00038017928078234
 769    -0.0064143805024835
 770     0.014432077676103
 771    -0.00014685811191751
 772    0.00085032770007645
 773    0.0010165590048445
 774    -0.0085583390932344
 775     0.014633709163447
 776    -0.00098188996269704
 777    0.00070803585328827
 778    0.0016125932314111
 779    -0.0038883290249879
 780    -0.0077015650785212
 781    -0.00083879357043389
 782    0.00075728165422004
 783    -0.00013079011341425
 784    -0.00052002469759506
 785    0.0050165871928893
 786    7.6304590547502e-05
 787    -0.00010699362421723
 788    0.00036211801120555
 789    -0.0010378782350193
 790    0.0024147518438086
 791    -0.00022383473270038
 792    7.046443332735e-05
 793    6.1038088543384e-05
 794    6.6770455579105e-05
 795    0.0025702797541364
 796    -1.9903940292325e-05
 797    0.00027624309182096
 798    -1.0851722357949e-05
 799    -0.0003285200386636
 800    0.0025189232310676
 801    0.0041795606065443
 802    0.00096522505794807
 803    0.0014727431952185
 804    -0.00041973543923824
 805    -0.0010978442149043
 806    0.0012007689830222
 807    -0.0043100542431322
 808    0.00015373079561364
 809    -7.9080900002382e-05
 810    -0.00018071376795238
 811    -7.4402656177488e-05
 812    -0.00010968504298358
 813    0.0024675637148742
 814    0.0083653183784167
 815    0.0057371186171342
 816    -0.0024852112736031
 817    -0.0038813838978732
 818    -0.002199089785991
 819    0.0041353466621259
 820    0.0027966847756167
 821    0.0040549300046531
 822    0.00042699484112325
 823    -0.00022646659009811
 824    -4.710740165496e-05
 825    0.00029744204656598
 826    0.00032712678020502
 827    0.0074960430556332
 828    -0.0044493082111453
 829    -0.00073374819247791
 830    0.00020135614346982
 831    0.0001925188947599
 832    0.0092842456567495
 833    -0.00099385037142172
 834    0.0007730059586396
 835     0.001393288761396
 836    0.00066431738793852
 837     0.011543741145261
 838    -0.0081629164816424
 839     0.001558536025999
 840    0.0010728083038376
 841    0.0010735631373162
 842     9.39309850124e-05
 843    -0.00039655513270758
 844    0.00022498288025419
 845    0.00016138415182197
 846    0.00048009573427734
 847    0.0020112765046694
 848    -0.0024808755175092
 849    0.00011219926526162
 850    -1.6743572910281e-05
 851    0.00030195548936413
 852    0.00099322510503104
 853    -0.0042139753020124
 854    0.00024892940516687
 855    0.00016242722475099
 856    -0.00025803974089244
 857    -0.00046703152634375
 858    0.0019376125216435
 859    0.0029669237330865
 860    -0.0025523490535835
 861    -0.0013632091936959
 862    0.00082669109304622
 863    0.0050867187410069
 864    -0.0034556728351006
 865    -0.003965558880507
 866    0.0004991503577998
 867    -0.00011886281534854
 868    0.00011464711204521
 869    0.00021526460635362
 870    9.6349018818333e-05
 871    0.0013566402938458
 872      0.00463850975026
 873     0.002881038022596
 874    0.0038715494301633
 875    -0.00089676724104512
 876    -0.0017608464390235
 877    -0.0010860816626286
 878    -0.0014176615647394
 879    0.0018947621884991
 880    0.00019377780422393
 881    -0.0001508306607008
 882    7.8226241425756e-05
 883    3.9996712582041e-05
 884    -0.00012127137829934
 885    0.0040250436598719
 886    0.00086108070354745
 887    6.4157301002739e-05
 888    2.5290030430284e-06
 889    -0.00011805030441018
 890    0.0097734223970097
 891    -0.0026212278573391
 892    -0.00035887351937543
 893    0.0006746040128898
 894    0.00063711970277644
 895    0.0024581000482683
 896    -0.0027341108256966
 897    -1.2607722141273e-06
 898    -2.2043321895845e-05
 899    -0.00023831660859437
 900    0.0035936257908804
 901    -0.0029570873525236
 902    -0.00020804435920781
 903    0.00038887440423137
 904    2.7148406813193e-05
 905    0.0004091711740507
 906    -0.0011269157129393
 907    -0.00012904195998765
 908    4.5829860052483e-05
 909    0.00042971495169052
 910    -0.0022421246777184
 911    -0.0049123504900576
 912    7.5467419200854e-05
 913    0.00014632083805184
 914    -0.00050746901342051
 915    -0.0024664590642549
 916    0.0053018304033112
 917     0.037409048109661
 918    -0.0025531570994955
 919    0.0016313192098147
 920    -0.0040201780418947
 921    -0.010108896235728
 922    0.0067853709437204
 923    -0.015754780152173
 924    6.171996029993e-05
 925    -0.00033677290714206
 926    0.00052547892254517
 927    -0.00011604421135286
 928    0.00012316154966899
 929    0.0030400922023271
 930     0.013551732390211
 931     -0.01497300809248
 932    0.0041620888322763
 933    -0.0064656394841285
 934     0.003060161990298
 935     0.011584401104401
 936    0.0061222691202914
 937    0.0077144131888943
 938    0.00010428920534825
 939    0.00075212990376743
 940    5.0106861732602e-05
 941    -0.00027924050190158
 942    -3.8662308749452e-05
 943      0.02979532444579
 944     0.012935327991311
 945    -0.00094462750730113
 946    0.00088104784996139
 947    -0.00022571909822604
 948    0.0055508134607072
 949    -0.014394907254198
 950    0.00094457867165083
 951    0.0013154565440817
 952    -0.0001590802454415
 953    0.0051402158642501
 954    -0.0023145297359071
 955    0.00052178221781406
 956    -0.00019709255034606
 957    -0.00070050363144458
 958    0.0064666743785498
 959    -0.018273872512518
 960    -0.00036043325179758
 961    0.00058817271513545
 962    8.696445873419e-05
 963    0.0017462727282061
 964    0.0042713313641543
 965    -4.3341580497948e-05
 966    0.00057749955894305
 967    -0.00051917931343228
 968    0.0050711071884383
 969    -0.021687142413429
 970    -0.00022288390760245
 971    -0.00056541357936191
 972    8.7521324222649e-05
 973    -0.0014837326117621
 974    0.0048011328771581
 975    0.0059444645959089
 976    0.0021574427425912
 977    -0.0037848816778125
 978    0.0011958624121783
 979    0.0012496262811228
 980    0.0037491538142988
 981    0.0025275013127516
 982    -0.00029181237685565
 983    -0.00031103773342149
 984    -0.00012123574901152
 985    -0.00011398557753526
 986    -0.00027158485576446
 987    0.00071671114517926
 988    0.0043691356960354
 989    -0.010237905404061
 990    0.0022185590963444
 991     0.003507630907304
 992    -0.00049801847580812
 993    0.00069886089140201
 994    -0.0036864180799736
 995    -0.0009942471547555
 996    -3.2482326821041e-05
 997    0.00019258090639724
 998    2.4976175477344e-05
 999    1.8523457973637e-06
 1000    0.00043295883251652
 1001    0.0090079595210356
 1002    0.0039441765790087
 1003    -0.000164030812328
 1004    0.0002949094813955
 1005    2.3609313821849e-05
 1006    0.0048388784126556
 1007    0.00019948676358043
 1008    0.00071869812888869
 1009    -0.00023657305788855
 1010    0.00042301254401426
 1011    0.0032843358516276
 1012    0.00070390816456551
 1013    0.00030552597122332
 1014    -0.00045924968536117
 1015    9.7325532570196e-05
 1016    0.0098226718722681
 1017    -0.0036099877816835
 1018    3.8007433559364e-05
 1019    -0.00033808636497964
 1020    0.0011990612666934
 1021    0.00015454191729158
 1022    -0.0040714163026157
 1023    7.6087581660813e-05
 1024    3.4389903763414e-05
 1025    -0.00042169375194991
 1026    0.0020183086441522
 1027    -0.003410384435142
 1028    0.00024182095164527
 1029    -0.00017971694741071
 1030    -2.387503356323e-05
 1031    -0.00055614556741567
 1032    0.0017759335863721
 1033    -0.00011532420927105
 1034    -0.0039627105322542
 1035    0.00027554056845889
 1036    -0.002331192192076
 1037    0.00078645677107439
 1038    -0.0014290834826972
 1039    -0.0019824760580835
 1040    0.00020311292684489
 1041    5.0170942980256e-05
 1042    -0.00012629389826474
 1043    9.1868680653845e-05
 1044    -0.00012714839129106
 1045    -0.00044326323479581
 1046    -0.0014718426005995
 1047     0.001033698192442
 1048    -0.0029859543981506
 1049    0.0025721960151942
 1050    0.0010996554939091
 1051    0.0032005832081828
 1052    -0.0018941738280412
 1053    -0.0016463085944064
 1054    0.0003343230931458
 1055    -0.00016260520758276
 1056    0.00016967753390639
 1057    -1.6392154410813e-05
 1058    0.0002159826091751
 1059    -0.0037664814792035
 1060    0.0035100162314186
 1061    -0.00019599941384302
 1062    -8.8990715018641e-05
 1063    0.0003229883366698
 1064    -0.00022798124263553
 1065    -0.00083464156468686
 1066    0.00020477344324323
 1067    0.0001383661963546
 1068    -0.00056077074246801
 1069    0.0012378518511717
 1070    -0.0012508383493977
 1071    -5.5947942261075e-05
 1072    0.00018394608107908
 1073    0.00030901514030915
 1074    0.0050804469113318
 1075    -0.0040202163621894
 1076    -0.00014761787502852
 1077    -9.7269674846592e-05
 1078    0.0001126195364149
 1079    -0.0028036879103952
 1080    -0.0018814902216163
 1081    9.505451652564e-05
 1082    -7.296392980973e-05
 1083    0.00014203414715622
 1084    -1.7228306898211e-06
 1085    0.00034427657386828
 1086    -0.00030777578540116
 1087    4.5286782537416e-06
 1088    -0.00014013634238998
 1089    -0.0018957978578191
 1090    0.0049392543674646
 1091      0.01077562000269
 1092    -8.3585938436833e-06
 1093    -0.0039758846935259
 1094    -0.00012953146109037
 1095    -0.0026162657272082
 1096    -0.0011401611003819
 1097     0.003250196325671
 1098    -0.00012670367419566
 1099    -8.2951082818228e-05
 1100    0.00019123934820502
 1101    -0.00025494598088359
 1102    0.00012325249346185
 1103    -0.00026719577388255
 1104    0.0013336357935613
 1105    -0.0097138239918185
 1106    -0.0036360844291388
 1107    0.0037199521488223
 1108    -0.00046848212067367
 1109    0.0051535340043669
 1110    -0.0016219259453941
 1111    0.0042763002245539
 1112    -1.7951214734232e-05
 1113    -0.00032724806745525
 1114    8.9804469114386e-05
 1115    -0.00036053693879326
 1116    -7.2277758591764e-05
 1117    0.0096110991460719
 1118    0.0028018562036422
 1119    0.00033964532443863
 1120    -0.00038450186583792
 1121    -0.0003399011851687
 1122      0.00110728254001
 1123    0.0091611796758855
 1124    0.00015049421024021
 1125    0.00015473248552387
 1126    1.1614613832741e-06
 1127    0.0013896222887435
 1128    -0.00081990562502491
 1129    -6.0911555523711e-05
 1130    9.0502325320532e-05
 1131    -0.00031235183825225
 1132    0.0037496245457292
 1133    -0.0080730099807737
 1134    0.00014555627132054
 1135    -0.00019450135227429
 1136    -0.00021311240851031
 1137    -0.0017711203850227
 1138    -0.0023022762519745
 1139    0.00015506682675697
 1140    7.9075574939018e-05
 1141    -1.2586387130203e-05
 1142    0.0023087208909515
 1143    -0.0081113217628001
 1144    -0.00013430069269961
 1145    -4.6844080501493e-05
 1146    -0.0001305134373212
 1147    -9.6172128307335e-06
 1148    0.0001014556759431
 1149    -0.00027696270521489
 1150    -0.00042488221205694
 1151    -5.9127973870048e-06
 1152    -0.00037682559517002
 1153    -0.00041506841931583
 1154    -0.00017326892398223
 1155    -0.00070011319454971
 1156    -3.0746297251184e-05
 1157    2.4090901840298e-05
 1158    6.4780101191809e-05
 1159    9.8758626024392e-06
 1160    5.4957996605816e-05
 1161    3.6028834577885e-05
 1162    9.6271724775374e-05
 1163    -0.00019310324513446
 1164    0.0040010033422923
 1165    0.00015430462261808
 1166     0.003787928303055
 1167    -0.0072824257349113
 1168    -0.00058443075239965
 1169    -0.0066854734910082
 1170    -0.00020553977148222
 1171    -6.469061249198e-05
 1172    -0.00025993104457201
 1173    0.00012723288032892
 1174    -0.00024326969017874
 1175    0.0018379003656491
 1176    -0.014066376985641
 1177    -0.00036989606454888
 1178    1.2197295195277e-05
 1179    0.0003377400180323
 1180    5.4958664412892e-06
 1181    -0.0015365840017244
 1182    -0.00045712208538114
 1183    8.384028536496e-05
 1184    -0.00043879040923475
 1185    -0.0024400158982745
 1186     0.016837162574542
 1187    0.00031600891366188
 1188    -0.00021862458195934
 1189    -0.00037615257365136
 1190    0.00030262218497427
 1191    -0.0015927487946763
 1192    -9.1467259730127e-05
 1193    -0.0001364396269913
 1194    -0.00011069658924211
 1195    -0.00023989086847287
 1196    0.0013843220987998
 1197    -8.8126915095055e-05
 1198    0.00012903306023242
 1199    -5.0625656247447e-05
 1200    -2.7921552080268e-05
 1201    5.3707293987505e-05
 1202    8.4318403003296e-06
 1203    6.2445384976394e-06
 1204    4.0689253859064e-05
 1205    0.00073886067497996
 1206    -0.003295730229243
 1207    -0.0092710349164393
 1208    -0.00015794267690597
 1209    -0.0018454854257388
 1210    0.00069038977986636
 1211    -0.0052789784708796
 1212    -0.0024346030521468
 1213    -0.00030873114284561
 1214    8.4280315152367e-05
 1215    9.7218634359418e-05
 1216    0.00011853602819556
 1217    -1.2595758295311e-05
 1218    -0.00015818949548376
 1219    -0.0028528133351838
 1220    -0.0092465017369737
 1221    -0.0084517199242936
 1222    -0.0022375086427111
 1223    0.0039139634114309
 1224    -0.00096049527631096
 1225    0.0059679348726683
 1226    -0.0039477798815249
 1227    0.0029179857013746
 1228    0.00010008873121103
 1229    5.6762364973218e-05
 1230    -0.00022782625516364
 1231    -0.00044658507450324
 1232    -7.244891106851e-05
 1233    -0.0087132472986428
 1234    0.0023595202562429
 1235    0.00097072677460057
 1236    -0.0016238110245953
 1237    0.00050787223508026
 1238    -0.011646539613573
 1239    0.0057083619209363
 1240    0.00064160535650071
 1241    -0.00069130345993894
 1242    -0.0015167701252885
 1243    -0.0099545268581472
 1244     0.011921077261849
 1245    0.00076819810718911
 1246    -0.00067806864077864
 1247     0.001308272275855
 1248    -0.0020443055715594
 1249    0.0028011622737917
 1250    0.00058884144867851
 1251    -0.00032937331191057
 1252    0.00015048554500539
 1253    -0.0010992787738354
 1254    0.0072247838651211
 1255    -0.00038605567831529
 1256    -6.1039925177029e-05
 1257    0.00021781431278984
 1258    -0.0014731312534562
 1259    0.0018526064426134
 1260    0.00031995778468109
 1261    -1.1316823294209e-05
 1262    7.2074159658955e-05
 1263    0.0022514129269364
 1264    -0.0071127396799202
 1265    -0.0086692381997507
 1266    0.0013141260321324
 1267    0.0050558239611575
 1268    0.0011294928636285
 1269    0.0016663949512796
 1270    -0.0064487741845851
 1271    -0.00021884766344307
 1272    -0.00011780258570826
 1273    0.00022037737350813
 1274    -0.00024271896803929
 1275    0.00031520346092298
 1276    -7.1395431470557e-05
 1277    -0.00053722693763742
 1278    -0.0035884068047505
 1279    0.0079310588173639
 1280    0.00024083017681333
 1281    -0.0039148427237677
 1282    0.00064139059729713
 1283    0.0012443250754526
 1284    0.0059788126142948
 1285      0.00122128088045
 1286    7.9493185162548e-05
 1287    -0.00011082863792133
 1288    0.00049359969387098
 1289    -2.2282893605284e-05
 1290    9.3725952067291e-05
 1291    -0.0041307020578352
 1292    0.0011224527328137
 1293    0.00034714143348908
 1294    0.00017849960108762
 1295    0.00073111618854898
 1296    -0.007983635289246
 1297    -0.0002839751221423
 1298    0.00021288654572201
 1299    0.00015193404668421
 1300    -0.00047511554491663
 1301    -0.0028001846061324
 1302    -0.0021583164362182
 1303    9.8515172272617e-05
 1304    0.00027055414866692
 1305    0.00030841467408509
 1306    -0.012083873758191
 1307    0.00048531947993299
 1308    0.0013656903942778
 1309    0.00044357394209754
 1310    -6.5216048881361e-05
 1311    -0.0034139369431457
 1312    0.0059366819451205
 1313    1.1691855176614e-06
 1314    0.00025073559072102
 1315    0.00030769592298603
 1316    0.00091026984277889
 1317    0.0081211148594673
 1318    -0.00048855479374668
 1319    -0.00022365221906293
 1320    0.0003329461523953
 Sym= A
 Ene=               0
 Spin= Alpha
 Occup=    0.00000
   1    -0.0046929058743471
   2    -0.00081832115244533
   3    0.0052370225645617
   4     0.011869642618819
   5     0.037934292107414
   6    -0.022757787423146
   7    -0.062218116342451
   8     0.039985451326676
   9    -0.023685589716063
  10    -0.065494462242329
  11     -0.11734446878751
  12      0.07238482573284
  13      0.19196649720724
  14     -0.15693336105415
  15     0.093350977922823
  16      0.25607109258059
  17    -0.019320690928892
  18    0.0029479511404277
  19     0.003462207075111
  20     0.014655465888052
  21    0.0011350916526757
  22    0.0088580870728208
  23    -0.00026424783009161
  24    -0.00068214343478705
  25    -0.0067728339447678
  26    -0.00098964616504776
  27     -0.02791854978605
  28    -0.058894725267051
  29      0.13922712769803
  30     0.087563260652446
  31    -0.015920825002285
  32    0.0044195786447407
  33     0.012937072689475
  34    -0.020774832778657
  35    0.0053752354755518
  36     0.016492400281385
  37     0.059693398377988
  38    -0.016414910416884
  39    -0.047390535403765
  40     0.061953440859243
  41    -0.014578665003511
  42    -0.047214919452754
  43    -0.0042510998787999
  44    0.00047235431540031
  45    -5.9881375583156e-05
  46    0.0071699511356483
  47    0.00044173286705657
  48    -0.0024063843945113
  49    0.00043464787792743
  50    0.0010781620960431
  51    0.0043309077695065
  52    0.00039190564230575
  53    0.0083504779774264
  54     0.016309890963763
  55    -0.036994253955317
  56    -0.027158695350504
  57    -0.0071455032494583
  58    -0.010570178538489
  59     0.006741729935923
  60    -0.0090756217831062
  61    -0.014427554936249
  62     0.008795777686121
  63     0.025702228792573
  64     0.039132907130969
  65    -0.023985131410866
  66      0.02669930233374
  67     0.046253110469102
  68    -0.027535073773225
  69    0.00088046811933435
  70    -0.00018407288144162
  71    0.0022641511786544
  72    0.0019503709084524
  73    -0.0025338352088559
  74    0.0018425653217885
  75    0.0006826999654294
  76    0.0019071940952811
  77    0.0014737566076293
  78    -0.001398756508105
  79     0.035717687611971
  80      0.07423450790181
  81      -0.1743731921658
  82     -0.11117045262537
  83    -0.0094061971373959
  84    -0.019164811252232
  85    0.0026031907577215
  86    -0.011889621204898
  87    -0.024919846434245
  88    0.0031534640201565
  89     0.033422837645803
  90      0.07243487064452
  91    -0.0074605796505434
  92     0.037313289438591
  93     0.072247878589367
  94    -0.0058562633294343
  95    -0.010139944910358
  96    -0.0014935085226354
  97    0.0053000934998981
  98    0.00067281127082803
  99    0.00012505571002595
 100    -0.0044372601470532
 101    -0.0011296374524672
 102    0.0085786430330798
 103    0.0003218483780064
 104    -0.0023723239490819
 105     0.015386848326551
 106     0.031886501842857
 107    -0.076567132924021
 108    -0.044175201642107
 109     0.020250373543206
 110    0.0028101972820057
 111     0.010399681940071
 112      0.02722529954261
 113    0.0033789867262126
 114     0.013124367736748
 115    -0.077101026836028
 116    -0.010031027700269
 117     -0.03713176177804
 118    -0.077733620746525
 119    -0.0088773053900045
 120    -0.037288358246324
 121    0.0021194954914852
 122    -0.0022480293641667
 123    0.00040867111943091
 124    -0.0033615935944591
 125    -0.00076716121669851
 126    0.0019422363719499
 127    -0.0043155363288018
 128    -0.00035813424427229
 129    -0.0035604500615856
 130    -0.00067656049493243
 131    -0.007300866603355
 132    -0.015260846169304
 133     0.034424241863338
 134     0.024002670929705
 135    -0.0048141706696603
 136    -0.0098314386984661
 137     0.012818673929848
 138    -0.0056851496627453
 139    -0.013345601035522
 140     0.015478029595769
 141     0.016958090406275
 142     0.036715200906184
 143    -0.046395602248768
 144     0.014557464053132
 145     0.039601721980035
 146    -0.038326678866595
 147    -0.00081511632847706
 148    0.00067515660309915
 149    -0.002915279969362
 150    -0.0011803464337377
 151    0.0013657730232044
 152    0.00034922359693536
 153    -0.00047181633268276
 154    -0.003929573641173
 155    -0.0029352214890784
 156     0.001000822165393
 157    -0.021884065221742
 158    -0.042746532005996
 159      0.10282546963353
 160     0.059937317776963
 161    8.3141368001421e-05
 162    0.0088195496920868
 163    -0.026539745664002
 164    0.0004827215458229
 165      0.01121372936492
 166    -0.036114777015715
 167    -0.0009168354060403
 168      -0.0319997523836
 169     0.099464255122759
 170    -0.0013416430045309
 171     -0.03211745694659
 172      0.10766820994678
 173    0.0042189580232449
 174    -0.00051654590852996
 175    -0.0019688186454085
 176    1.3599845811534e-05
 177    0.00090204432051626
 178    0.0056592952236191
 179    0.0010253549550524
 180    -0.0039023140119064
 181    -0.0012115743179059
 182    -0.0013298240606525
 183     0.010988926907616
 184    0.0025870881461908
 185    -0.0092181194209633
 186    -0.045272271080235
 187    0.00098711041213731
 188      0.15830530002651
 189     0.082702909943877
 190    0.00082256966121397
 191      0.16698397526611
 192     0.087331121868778
 193    -0.0010483503076187
 194     -0.50085760804035
 195     -0.26121606318327
 196    -0.013635352058021
 197     -0.69965094186241
 198     -0.35673195504204
 199    -0.024736238920758
 200    -0.0031343032538777
 201    0.0089919791936978
 202    -0.013664301440178
 203    -0.010630812566846
 204     0.011812188966563
 205    -0.00081440675351164
 206    -0.00039014258708022
 207    0.0084163779040726
 208    0.00020849753304025
 209    0.0038072584708015
 210    0.0072089720602099
 211    -0.019967137972522
 212    -0.0013352227638847
 213    0.0069853153376887
 214    -0.015716870531857
 215    -0.013135643342439
 216    0.0096118189471999
 217    -0.020322049435706
 218    -0.017082318347847
 219    -0.026782745304898
 220     0.060139384914349
 221     0.047909718094373
 222    -0.035248302363293
 223     0.056486725126757
 224     0.051068761925481
 225    0.00010027397542637
 226    -0.0025644468071084
 227    9.9822867416627e-05
 228    -0.00030346073343094
 229    -0.0051447839631288
 230      0.00221300083489
 231    -0.0033306779003766
 232    0.00087952389471846
 233    0.00052039021311193
 234    -0.0079495469261443
 235    -0.046265788029056
 236     -0.09608363774071
 237      0.21852128974457
 238      0.16564173608245
 239    0.0047665587189694
 240     0.052032979022284
 241    -0.015093383604709
 242    0.0063642276092095
 243     0.071940745545639
 244    -0.019116211400994
 245    -0.016862938019676
 246     -0.20261272558723
 247      0.05517893814998
 248    -0.023830822675187
 249     -0.23459907128135
 250     0.062489195387026
 251    -0.0064547478028816
 252    0.00054983086082082
 253    -0.0044117564526312
 254    -0.011056655588568
 255    0.0012043701821026
 256    -0.0044434830225613
 257    -0.0024633055516557
 258    -0.0071873965247052
 259    -0.008578607289811
 260    0.0027829401385061
 261    -0.030954666516073
 262     -0.06787985071111
 263      0.15629862293925
 264      0.10996246320271
 265    0.0038697605675718
 266    -0.021262540338157
 267     0.040563489257631
 268    0.0048070540547994
 269     -0.02787452424002
 270     0.055366608803789
 271     -0.01431878443876
 272     0.077139223325091
 273     -0.15799089428817
 274    -0.013321361357225
 275     0.086513330618581
 276     -0.16754756607548
 277    0.0092609818993523
 278    0.0011641983888794
 279    -0.0050071232085492
 280    0.00098555359958008
 281    0.00026755318692119
 282    0.0092459793751749
 283    0.0016605037390497
 284    -0.010571722368196
 285    0.00015535039615097
 286    -0.0021532362728473
 287     0.001086613990468
 288    0.00010323417021591
 289    -0.0031905941484366
 290    0.0049953266864323
 291    -0.0014252237058483
 292    -0.024044969463045
 293    -0.012753411609404
 294    -0.0017741462799966
 295    -0.030907478301587
 296     -0.01607613198739
 297    0.0053603999548646
 298     0.087984950888798
 299     0.047004353929884
 300    0.0056725666080692
 301     0.091624344465931
 302     0.045638498366683
 303    0.00022740852029804
 304    0.0037827274776723
 305    0.00036828719307372
 306    0.0015374456274079
 307    0.0064730760515758
 308    0.0011440327114727
 309    0.0048747835785279
 310    0.0004465904836081
 311    -0.00026289066821899
 312     0.010565303159574
 313     0.056432531768906
 314      0.11625663189121
 315     -0.27372169755338
 316     -0.17516636136776
 317    -0.014175545108283
 318     0.068417447492346
 319    0.0043626775661254
 320    -0.018300002936958
 321      0.09340358242663
 322    0.0065807981581853
 323      0.05213054693773
 324     -0.26277549704477
 325    -0.017883784117391
 326     0.054055934118081
 327     -0.27962907377427
 328    -0.016610203731613
 329    0.0058121052263128
 330    0.0014356184665126
 331    -0.0016123063069628
 332     0.009479256271494
 333    0.0034749482680493
 334    0.0098608245597372
 335    -0.0026962829819883
 336    -0.00059772329748768
 337     0.015451515952934
 338    0.0061486787817185
 339    0.0057804713877218
 340    0.00094513110570787
 341    -0.0084105373792588
 342    -0.010512644620181
 343    -0.062050351427419
 344    0.0025150191896403
 345     -0.02701728455407
 346    -0.065262740907583
 347    0.0026213143384258
 348    -0.028336938322122
 349      0.19279264682214
 350    -0.0084050178579485
 351      0.08351664792811
 352      0.25790254747048
 353    -0.0098089443199377
 354      0.11039729484811
 355    0.0010896570327219
 356    2.4534864006401e-05
 357    -0.00028019437743212
 358    -0.0025954708463333
 359    -0.00078776608969876
 360    -0.0014205285208971
 361    -0.00033628813625828
 362    -5.3166015392471e-05
 363    0.0019922990388372
 364    -0.00031953974224773
 365     0.018571801521405
 366     0.035166959340896
 367    -0.081162622259083
 368    -0.057369000884568
 369    -0.022391089966734
 370    0.0033766092519924
 371    0.0020397822830278
 372    -0.030649669082158
 373    0.0041655670157795
 374     0.002526695480101
 375     0.083327013498246
 376    -0.012698018106816
 377    -0.0071405295677175
 378      0.09625952857685
 379    -0.0085692640473121
 380    -0.0072681128977268
 381    0.0022014751085612
 382    0.00041389091990605
 383    9.056231494229e-05
 384    -0.0034365166916432
 385    0.0014425590178404
 386    0.0020226575093534
 387    0.0011584044629068
 388    -0.00049612359040997
 389    -0.0040567927694845
 390    -0.00026816832298087
 391    -0.00018542385299975
 392    -0.00056708591234956
 393    0.0010827683632237
 394     0.001600753242134
 395    0.0094318746630522
 396    0.00033877450503828
 397    0.0039054122607494
 398     0.011991028981544
 399    0.00042536770100308
 400    0.0051099583271339
 401    -0.034768611333667
 402    -0.0011673251580066
 403    -0.014411039507905
 404    -0.033423753386098
 405    -0.0020239740147919
 406    -0.014972467437737
 407    0.00012626580228247
 408    0.00012496147188776
 409    0.0013215973996369
 410    -0.00036741295526172
 411    0.0028937679940196
 412    -0.00048396746946936
 413    -8.9562857088602e-05
 414    0.0011836673745255
 415    0.00071828102794728
 416    0.0031499665175409
 417     0.012335228342609
 418     0.026658699120842
 419    -0.063099958199438
 420    -0.039380324202877
 421    0.0089257070520485
 422    0.0015082586198156
 423    -0.0031241996497661
 424     0.011757636314094
 425    0.0016723626543808
 426    -0.0040544525192469
 427    -0.032432912807202
 428    -0.0056710261686156
 429     0.011348215052227
 430    -0.035144474073641
 431     -0.00321362099425
 432     0.010758362715999
 433    -0.0032570488480826
 434    0.0033841785632827
 435    -0.00052279670086146
 436    4.3654658279519e-05
 437    -0.00016455673746063
 438    -0.0026048641484744
 439    0.0035630058410657
 440    -0.00062426243696029
 441    -0.00049460562272295
 442    0.00011975329771744
 443    -0.00044093317476797
 444    -0.00046580980845474
 445    0.0013368542452739
 446    0.00091021928651128
 447     0.007465186322515
 448    -0.00056610554354482
 449    0.0035803184951346
 450     0.009083683168483
 451    -0.0007056057359414
 452    0.0045417947991145
 453    -0.027245496533583
 454    0.0019051913691436
 455    -0.012683771576694
 456    -0.023804174885113
 457    0.0032431358855787
 458    -0.013081366701213
 459    -0.00033265386683956
 460    -9.4492970540357e-05
 461    -0.0008133368115046
 462    -0.00014991753274758
 463    -0.0018947675861014
 464    0.00051614718248502
 465     0.000185065230037
 466    -0.0013451014613449
 467    -0.00063738142810122
 468    -0.0029540805310562
 469    -0.0086106457024195
 470    -0.016046687720999
 471     0.037187600178466
 472     0.026554680675076
 473    0.0080556937890155
 474    -0.0010962724114763
 475    -0.010073758703533
 476    0.0097123313243501
 477    -0.0013534498202652
 478    -0.013732039813636
 479     -0.02905700175042
 480    0.0043261792651568
 481     0.037462869979028
 482    -0.025175155116916
 483     0.002421992742836
 484     0.043757400341991
 485    0.0020661015493433
 486    -0.0018504699906031
 487    0.00060669800307871
 488    3.0634200469424e-06
 489    -0.0004679057871196
 490    0.0017752079640563
 491    -0.0033000124664234
 492    -0.00030350081745954
 493    -0.00012354379312041
 494    0.00042255566380066
 495    0.0050230734740951
 496    0.0009913072203206
 497    -0.010020046370968
 498    -0.0027306010110522
 499     0.011913731032801
 500     -0.01456791735814
 501     0.018462728188455
 502     0.012420720709755
 503    -0.015170967784676
 504     0.019463175442893
 505    -0.037646950665593
 506     0.046854739548014
 507    -0.055510927469032
 508    -0.052851200539663
 509     0.060444387708761
 510    -0.077791314441599
 511    -0.0040203816843925
 512    0.0016085688605288
 513    -0.001201836244627
 514    0.0015193581104321
 515    0.00029962262641017
 516    0.0017052301742096
 517    -0.0002282825740417
 518    0.0003822846755819
 519    -0.00030510726124838
 520    0.00056505307600472
 521    -0.0030642714572222
 522    -0.0056246358695361
 523     0.011984476811776
 524     0.011427433745724
 525    0.0034718133673438
 526    0.0027844751515576
 527    -0.003716881583913
 528    0.0048091180124304
 529    0.0034541773821406
 530    -0.0043516542837635
 531    -0.012203443659575
 532    -0.010279134726294
 533     0.013438178644904
 534    -0.016825712705711
 535    -0.0087586286508527
 536     0.010461397661188
 537    -0.00014568197734058
 538    -0.00087068506299876
 539    -0.0003156251856141
 540    0.00026791563395963
 541    0.00067564007997122
 542    -0.00040796308691138
 543    -0.00096788357361419
 544    -0.00010150061937906
 545    0.00065779420331571
 546    0.0010477066896726
 547     0.005682114906156
 548     0.011292522971504
 549    -0.026229375703003
 550    -0.017079182237648
 551    -0.00090193712583943
 552    -0.0074644120168395
 553    -0.0019479864190258
 554    -0.001503452426996
 555    -0.010150687045451
 556    -0.0023246693387215
 557     0.002569568961938
 558     0.027744511921691
 559    0.0071764785992929
 560    0.0074080658143381
 561     0.031363100250839
 562    0.0051617379203122
 563    0.0004856300895629
 564    3.983088456626e-05
 565    -0.00049469730522505
 566    0.0011092284606787
 567    -0.00024515535520381
 568    0.0013991423773391
 569    0.00031983549164354
 570    -0.00060402957924985
 571    0.0017019613671018
 572    -0.00065718248925453
 573    -0.0060934152395483
 574     -0.01098917180787
 575     0.027013213208391
 576     0.015680047556993
 577    -0.0028130524740577
 578    0.0033574723451782
 579    0.0058931278110434
 580    -0.0037947681214413
 581    0.0041709427950285
 582    0.0081244720886993
 583    0.0099457460897473
 584    -0.011902633815862
 585    -0.022026919488487
 586     0.012164132653542
 587    -0.012484307042431
 588    -0.025991457327828
 589    0.00088255568390777
 590    -0.0011026393703378
 591    0.00082422608754682
 592    0.00016324737241642
 593    -0.00043348923241248
 594    0.0011429550750939
 595    -0.00054193776935286
 596    0.0012204852763358
 597    -0.00046148821388335
 598    0.00062914369579835
 599    -0.0047662459153805
 600    -0.0099655778738848
 601     0.022695920492858
 602     0.015859056141914
 603    -0.0030132042904808
 604    -0.0065967370413278
 605    -0.0035523559622591
 606    -0.0031978259889659
 607    -0.0090620695643647
 608    -0.0042587966545385
 609     0.010884976405945
 610     0.024526315807138
 611     0.012759889391379
 612    0.0061094789319751
 613     0.028458637186197
 614     0.010816356417531
 615    -0.00059047427950974
 616    0.00025301534347316
 617    0.00098153200858256
 618    -0.0011018064808799
 619    0.00055476161708894
 620    -0.0010267581081196
 621    -0.00032836038189643
 622    0.00098444323833096
 623    -0.0012229845712214
 624    0.00062212433678883
 625    0.0011307239720437
 626    -0.0053349224956377
 627    -0.017954154903553
 628    0.0013071717928778
 629    -0.0024127998680181
 630    -0.0012294462659908
 631    0.0046527345466177
 632    -0.0084938421836177
 633    0.00013071777381288
 634    0.00015331426598871
 635    -0.00033202992718469
 636    -1.576756187262e-05
 637    6.189729314785e-05
 638    0.00011267753699163
 639    -0.0041149636755759
 640     -0.01357630198585
 641     -0.01060383925084
 642    0.0085286421210051
 643    0.0010277204788175
 644    0.0049012826030633
 645    -0.012593228372774
 646    -0.00095123502525172
 647    -0.017721505762639
 648    0.00026246298372849
 649    -0.00035000020753112
 650    0.00073676872115142
 651    -0.00037180890460531
 652    0.00060824894981871
 653    -0.008247870076876
 654    0.0080507956826348
 655    0.00016786110742867
 656    -0.00086581777471055
 657    -0.0014353847429667
 658    -0.016464676064233
 659     0.022006966055286
 660    -0.0023224499914226
 661    -0.0011040664183167
 662    -0.0023476499055999
 663    -0.017902452161411
 664    -0.00036826493662102
 665    -0.0014022369329762
 666    -0.00070121751754024
 667    -0.00025463833185351
 668    -0.0020740196493927
 669    0.0032702797845403
 670    -0.00025240328427611
 671    0.00016911078660482
 672    -0.00032530053843193
 673    -0.0014942379424476
 674    -0.00047930465756868
 675    -0.00051332789176213
 676    -8.7691365186518e-05
 677    -0.00032597898286523
 678    -0.0019408023615069
 679     0.010879516074183
 680    0.00024255003992435
 681    -0.00016321987304177
 682    -4.371546824116e-06
 683     0.001102133328533
 684    -0.0035102690778423
 685    -0.0025816630561691
 686    -0.0014423536898046
 687    0.0010167559991139
 688    -0.00035805359406845
 689    -0.0005205148540652
 690    -0.0019448703067707
 691    -1.323669731634e-05
 692    0.00032317454723202
 693    -0.00028297513177769
 694    -0.00022708461848228
 695    -8.2060793399227e-05
 696    4.2766974397125e-05
 697    0.0007775459531605
 698    0.0007106492785199
 699    0.0090437408808862
 700    -0.00023944712364374
 701    -0.0049051015747729
 702    -0.0054523886618993
 703    -0.0015594597292981
 704    0.0074433772731421
 705     0.012251120339241
 706    0.00024020889607375
 707    0.00023676095556529
 708    0.00088481208095784
 709    -0.00014981692448269
 710    -6.762754962442e-05
 711    -0.0001071828162984
 712    0.0013460678297671
 713    9.454347605042e-05
 714    0.00010380180924985
 715      0.00111441077113
 716    -0.00095167128471074
 717     0.004025627384741
 718    -0.00040146187603144
 719    -0.000419284192973
 720    0.00038690561943817
 721    0.00081303587653697
 722    -0.015428946798923
 723    -1.5191173638905e-05
 724    0.00048181649074926
 725    0.00035457866466876
 726    -0.0028192986154519
 727    0.0075111936576606
 728    -0.00059067039127485
 729    0.00031402063199181
 730    0.00016731110494382
 731    -5.5535998615671e-05
 732    0.0013600523824627
 733    0.00024367443282789
 734    0.00011222463731202
 735    7.528268365368e-05
 736    -0.00015104203583092
 737    -0.0032563904966049
 738    9.9028410800606e-05
 739    -0.00015484644481735
 740    0.00024448009315441
 741    -0.0014003678875961
 742    0.0058086773815274
 743     0.021148739061814
 744    0.0017319439633504
 745    -0.0014233703350585
 746    -0.0015069901650403
 747    0.00074833206455601
 748    -0.00076266610009529
 749    -0.0003703278212632
 750    -4.0570705145175e-05
 751    -1.338340899037e-05
 752    8.0911638716008e-05
 753    -3.1222610921671e-05
 754    -5.5216219300811e-05
 755    0.0029040369964103
 756    0.0077670516952674
 757     0.021839837748243
 758    -0.0071938583641276
 759    0.0023036097793395
 760    0.0028174934831937
 761     0.016401942489278
 762    -0.012079189613005
 763    -0.010821213009492
 764    0.00017199552993387
 765    5.8629438003481e-05
 766    -0.00054809364977385
 767    0.00038829193726908
 768    0.00011011273910248
 769    0.0069621901370386
 770    -0.001263377090908
 771    -0.000181009307742
 772    -0.0011724653506543
 773    -0.0012970795707819
 774     0.013674987264806
 775    -0.024622665372979
 776    0.0023870461037785
 777    -0.001128607151087
 778    -0.0019766201388487
 779     0.011171648893476
 780    -0.014309121386849
 781    0.0020908316045309
 782    -0.001578561787218
 783    -0.00021775380881841
 784    0.0011490947725113
 785    -0.0052894361961583
 786    7.8402446274753e-05
 787    -6.0053886318228e-05
 788    -0.00047433672264489
 789    0.0016003560181933
 790    -0.007661980283899
 791    0.00054758770406645
 792    0.00012543663995828
 793    6.135503905677e-05
 794    -4.8368832391758e-05
 795    -0.0050324764710815
 796    2.3870294969896e-05
 797    -0.0004830959748359
 798    3.7831113224846e-05
 799    -0.00055889553999993
 800    0.0025363181253102
 801    0.0063637856627813
 802    -0.00021193184512314
 803    0.0010332012948974
 804    -0.00019903604985249
 805    0.00095410924019884
 806    0.00071111234760069
 807    -0.0044644897922531
 808    -3.6662827217082e-05
 809    -3.3873099549622e-05
 810    -0.00020094876258608
 811    2.3616848475001e-05
 812    0.00016477963677185
 813    0.0021887716829147
 814    0.0077187717856455
 815    0.0025435903027204
 816    0.0012053326935199
 817    -0.0034747050434027
 818    -0.0021232618572331
 819    -0.0032195297104723
 820    0.0018726564952376
 821    0.0051925761475161
 822    0.0004203289375639
 823    0.00012907946194116
 824    -9.6399957935476e-05
 825    6.0077199104984e-05
 826    -0.00046086320476274
 827     0.010917538287519
 828    -0.0053811034821242
 829    -0.0014466096196352
 830    0.00080256827750344
 831    0.00068880174876797
 832    0.0079298256459217
 833    -0.0006943866816679
 834    0.00010076041566883
 835    0.0014154860549189
 836    0.00074894426041822
 837    0.0075413667526388
 838    -0.0018501742600918
 839    0.00047181647546506
 840    0.00011372255892522
 841    0.0004678512674344
 842    0.0025350760657313
 843    -0.0020748305949021
 844    5.7166940336456e-05
 845    0.00037172783389632
 846    0.00045921315103528
 847     0.000923503520873
 848    -0.0022528954177171
 849    -6.278440507085e-06
 850    4.0046905010522e-06
 851    0.00023034435700696
 852    0.0012089749980111
 853    -0.0059826381383481
 854    6.0790172150512e-05
 855    3.2566852640783e-05
 856    -0.00027116025602924
 857    0.0010544238207332
 858    -0.003377943755378
 859    -0.0095151220969126
 860    0.0036672299161391
 861    0.0013069433908764
 862    -0.0018015564408235
 863    0.0021540509520967
 864    0.0055806477786137
 865    0.0068043891466675
 866    0.00011182743095878
 867    0.00011923693507808
 868    -2.2908297843758e-05
 869    -0.00013514162782056
 870    -8.7014787663919e-05
 871    -0.0019039800774175
 872    -0.0065293970416425
 873    -0.0053606848467998
 874    -0.0034649830796591
 875    0.00061798159147622
 876    0.0068623918045522
 877    -0.001437582259213
 878    -0.0039003087536623
 879     -0.00561639161816
 880    -0.00024454643211747
 881    0.00069231591050035
 882    -0.00016622743565067
 883    -3.339091693968e-05
 884    9.885493011965e-05
 885    -0.0019334740595009
 886    0.00070677317215686
 887    8.417415023867e-05
 888    0.00038962769238799
 889    5.7144088630984e-05
 890     -0.01824357613481
 891    0.0099486046494868
 892    0.0013154249886579
 893    -0.0010736919799739
 894    -0.00090900612190335
 895    0.0010887084134698
 896    0.0056839952184352
 897    -0.00028882356475792
 898    -0.00019359260211613
 899    -0.00019540706312303
 900    -0.0040516409011913
 901    0.0098449739461034
 902    -5.8829328546011e-05
 903    0.0002953634442009
 904    -0.00016362010194325
 905    -0.0028759414427639
 906    9.0858331865462e-05
 907    9.7287623677812e-05
 908    -0.00025718151656994
 909    -0.00035091315485634
 910    0.0039744169738869
 911     0.003789000567302
 912    -6.2559251708184e-05
 913    -0.00013042965567913
 914    0.00017756703483814
 915    0.0006518550336528
 916    9.9638585044461e-05
 917    -0.018247495587741
 918    0.00091767291883703
 919    0.0072238260542051
 920    0.0081624284624221
 921    0.0040942724310026
 922    0.0036144846919771
 923     0.011051432718106
 924    6.5292351539706e-06
 925    -8.6178972623387e-05
 926    -0.00026114389797973
 927    3.2363337300851e-05
 928    -0.0002899514380152
 929    -0.00082400335587401
 930    -0.0038843545057114
 931    0.0069723102068015
 932    -0.0032789532583721
 933    8.9484482609705e-05
 934    -0.0030464242111841
 935    -0.00044492089449954
 936    0.00071950173585164
 937    0.00090047118976219
 938    4.4763461130761e-05
 939    -0.00032107727882184
 940    0.00030251433369687
 941    0.00011865057519169
 942    2.7354003230071e-05
 943    -0.0087942336059315
 944    0.0012220234157123
 945    0.00056450485237809
 946    0.00037663545115398
 947    0.00061415571113477
 948    0.0010905922857648
 949    -0.0056542435056716
 950    0.00055227032889267
 951    0.00014342147020708
 952    -1.1002373387741e-05
 953    0.00028052155026975
 954    0.0049039070761216
 955    -6.5277823213785e-05
 956    0.00027624268388609
 957    -3.3166978722151e-06
 958     0.001817158765953
 959     0.005810639480875
 960    0.00048806640374841
 961    -0.0002543695811183
 962    -0.00036039336795946
 963    0.00039593198265256
 964    -0.002364229385032
 965    0.00013573048498305
 966    7.8964208170363e-05
 967    0.00046445981011435
 968    -0.0068971868031225
 969     0.015034866176977
 970    -9.7038884922759e-06
 971    0.00010448121204431
 972    -0.00019141134331994
 973    -0.0016417507864395
 974    0.0047774777339239
 975    0.0071930180985843
 976    -0.0016853184311286
 977    -0.0025666405141591
 978    7.8749494783161e-05
 979    -0.0011809814975858
 980    0.0024914225079821
 981    -0.0020067268731361
 982    -5.0642782511848e-05
 983    -0.00010388579738234
 984    -3.8329785888275e-05
 985    -3.4470232984458e-05
 986    -0.00017102895588555
 987    0.00030094547643779
 988    0.0020602885251572
 989    -0.0037448218171387
 990    0.00036893576180713
 991    0.0037343658005976
 992    0.00016341869021801
 993    0.00087280609500169
 994    -0.0048508960963735
 995    -0.0002658933265175
 996    6.6257759127728e-05
 997    -2.5403683141915e-05
 998    9.8558785589494e-06
 999    -1.1000332989859e-05
 1000    0.00030691902642469
 1001     0.005551154622412
 1002    -0.0018006885861305
 1003    -0.00021408634535071
 1004    -0.00017820679941014
 1005    0.00011200863035097
 1006    0.0025654019055264
 1007    0.0012485290284678
 1008    0.00031455798597134
 1009    -0.00020739512391049
 1010    0.00029374732404541
 1011    0.0012197794599679
 1012    0.0015585553358668
 1013    3.8161166644498e-05
 1014    -4.3724267593106e-05
 1015    0.00014516664972192
 1016    0.0052044111785862
 1017    -0.0026525280493916
 1018    1.838160800389e-05
 1019    -0.00027149708782645
 1020    0.00070259255686743
 1021    -0.0011468642081112
 1022    -0.0038610161229221
 1023    3.7346158928986e-07
 1024    5.5444082206488e-05
 1025    -0.00021206925913195
 1026    0.0029828059229695
 1027    -0.0064800815407772
 1028    0.0002566911240995
 1029    4.485699827592e-05
 1030    3.379035810356e-05
 1031    0.00031423405325563
 1032    -0.0014219723928741
 1033    0.0062018066408352
 1034    0.00042297878805231
 1035    -0.0015207328764957
 1036    -0.0029947405710788
 1037    -0.00026458607039628
 1038    0.00017499719674018
 1039    -0.0015750704693172
 1040    0.0001284764684382
 1041    0.00014911539475339
 1042    0.00018509519000093
 1043    6.8998724069076e-05
 1044    -0.00035063204030617
 1045    0.00085007944719675
 1046    0.0025209395274458
 1047    0.0016322104834525
 1048    0.0013316467467624
 1049    -0.0062200983400926
 1050    -0.0034077138980389
 1051    -0.0011396785464804
 1052     0.005960401666304
 1053    0.0043999375959938
 1054    0.00013314362449941
 1055    0.00032381290392648
 1056    -5.4879882087014e-06
 1057    -0.00018033595540165
 1058    0.0002279480080437
 1059    0.0018898560496427
 1060    -0.001264181280473
 1061    0.00062389845374998
 1062    -0.00032317091307633
 1063    -0.00062633462513873
 1064    0.0016082491431289
 1065    0.0013328677046877
 1066    -0.00071151560578341
 1067    -0.00044685851459365
 1068    0.00084009553293414
 1069    0.0035392789964909
 1070    -0.0054282883479103
 1071    0.00020397885263589
 1072    -0.00013872814873632
 1073    -0.00014854388154037
 1074    0.0028316603704122
 1075    -0.0021420169885875
 1076    0.00038622858618293
 1077    -0.00010683498823222
 1078    -0.00013664036388443
 1079    0.00064585389469561
 1080    0.0013511014190483
 1081    -7.9287812088411e-05
 1082    -9.0976639877271e-05
 1083    -0.0005256540062148
 1084    -0.0027213840894108
 1085    -0.0021368836705923
 1086    2.2117719102079e-05
 1087    8.2399400179908e-05
 1088    3.4930374923793e-05
 1089    -0.0018054832995533
 1090    0.0039632296470014
 1091     0.017335622579835
 1092    -0.0022913763266611
 1093    -0.0032719608706495
 1094    0.00071668791488647
 1095    -0.00092579602548259
 1096    -0.00093063980571976
 1097    0.0039515178243345
 1098    -0.00036557007918613
 1099    -8.1454381991445e-05
 1100    -0.00039008797108072
 1101    0.00021385187051739
 1102    0.00041243903243428
 1103    0.0015026283828654
 1104    0.0035714802925588
 1105     0.007769607037153
 1106    0.0057623631154931
 1107    -0.0011471337377363
 1108    0.0027748144832745
 1109    -0.014018906304041
 1110    -0.0041993816004647
 1111    -0.0026268731529673
 1112    8.2883985341347e-06
 1113    0.00068983335200628
 1114    0.00014033473203502
 1115    0.00041446381291751
 1116    -0.00089121152540522
 1117    0.0014451384863163
 1118     0.001420987390235
 1119    -0.00059962761119291
 1120    6.6035336153055e-05
 1121    -0.00061269707789213
 1122    0.0074784298394806
 1123    -0.017870815031825
 1124    -0.0012698629972162
 1125    -0.0013865016338117
 1126    -0.0010772035680577
 1127    0.0045279005032574
 1128    0.0049231205651157
 1129    -0.0004616946125238
 1130    -0.00083627825921295
 1131    0.00049490882596278
 1132    0.0076083041655629
 1133    -0.017414894910227
 1134    -2.0768480436509e-05
 1135    3.5121139123122e-05
 1136    -0.00082171798313786
 1137    0.00051690853447332
 1138    -0.0083318433884511
 1139    -0.00024974586187156
 1140    0.00015417365801675
 1141    0.0001016354701035
 1142    0.00092603106895485
 1143    -0.0030221148894921
 1144    -0.00026187580056212
 1145    -0.00012227132538247
 1146    -0.00011878710436998
 1147    0.00019836999798906
 1148    -0.00086192564119457
 1149    -0.002678185452707
 1150    -3.7860024227601e-05
 1151    -0.00027511574786771
 1152    -0.00039138048583892
 1153    -0.00024482777534676
 1154    0.00019100285885155
 1155    -0.00030446383496622
 1156    -1.9102142471457e-05
 1157    9.7540696639647e-06
 1158    3.7882677722299e-05
 1159    1.7263721510703e-06
 1160    2.1341825859439e-05
 1161    -0.00038193856402299
 1162    -0.0012883230206835
 1163    -0.0020400665350436
 1164    0.0017231254936544
 1165    0.00087581032068251
 1166    0.0024039617673768
 1167    -0.0027181168373932
 1168    -0.0021688395558629
 1169    -0.0046554257752527
 1170    -0.00010338349097892
 1171    -9.932075133422e-05
 1172    -0.00011870520700319
 1173    6.9878840892785e-05
 1174    -0.00014001513147127
 1175    -0.00090343219404327
 1176    -0.0057124920359888
 1177    4.9110451653946e-05
 1178    -0.00036974880054614
 1179    5.8332563979574e-05
 1180    -0.0015716237701725
 1181    -9.5917665157663e-05
 1182    1.406597108635e-05
 1183    -3.8151885911232e-05
 1184    -0.00049704497269211
 1185    -0.0031321710600034
 1186     0.010398214009475
 1187    0.00027981427584076
 1188    -0.00047483307159308
 1189    -0.0004440733604311
 1190    4.892079879199e-05
 1191    0.00010100846470597
 1192    4.1337472960273e-05
 1193    -8.52045259352e-05
 1194    -4.9260963770481e-05
 1195    -0.00023544245797142
 1196    0.0016468330081487
 1197    -5.2933944882304e-05
 1198    5.588839228494e-05
 1199    -0.00011498575953746
 1200    -0.00024733780752055
 1201    0.00089548467686998
 1202    -9.3550762897802e-06
 1203    -8.641166126442e-05
 1204    2.7077227558042e-05
 1205    5.9812540176305e-05
 1206    -0.00063328591863646
 1207    -0.0020988387945627
 1208    -0.00021448264933629
 1209    -0.00065365462137475
 1210    0.00087876085731312
 1211    -0.00074097980043337
 1212    -0.0011252649195878
 1213    -0.0012603439134992
 1214    0.00010505520525064
 1215    4.7139052804244e-05
 1216    -8.1395879523317e-05
 1217    -3.2308577305881e-05
 1218    4.954872938878e-06
 1219    -0.00086379497412702
 1220    -0.0023900925979973
 1221     -0.00491483628095
 1222    -0.00011166731081486
 1223    0.0010215195748327
 1224    -0.0025857798904305
 1225    -0.00022302045842565
 1226    -0.0022131765118359
 1227    0.0054795786083675
 1228    -0.00016015203344282
 1229    0.00022861364627878
 1230    0.00035042451066254
 1231    -0.0001541907401003
 1232    5.8792095722692e-06
 1233    -0.0021262631488752
 1234    -0.00059970883867527
 1235    -2.7747993468785e-06
 1236    -0.00031436804428783
 1237    0.00044207023929222
 1238    -0.00044762109575321
 1239    0.0017978584744637
 1240    -0.0001374972343104
 1241    0.00015609429528662
 1242    -0.00012345023131047
 1243    -0.0043853145364457
 1244    0.0089810535788096
 1245    0.00053661584785293
 1246    -0.00063222533825202
 1247    0.00097568243971121
 1248    0.00089911457407693
 1249    0.00021312773101171
 1250    0.00014226852493032
 1251    8.3201737388173e-05
 1252    7.4521708324579e-05
 1253    -9.2556039039023e-05
 1254    0.00075730789762103
 1255    -6.9490154103058e-05
 1256    -8.8128812400311e-05
 1257    0.00017776888092415
 1258    -0.00076826166744847
 1259    0.00033725799327185
 1260    6.3773940154506e-05
 1261    1.7134643998827e-05
 1262    0.00010354156117506
 1263    0.00073911051291317
 1264    -0.0023652922419089
 1265    -0.0034095432672505
 1266    0.00069326158629876
 1267    0.0025984653304509
 1268    0.0020385528370775
 1269     0.003251198352599
 1270    -0.0024716882071826
 1271    0.00028740448966374
 1272    -8.4853835278597e-05
 1273    0.00012836829284911
 1274    -0.0001586648912038
 1275    0.00021281856293977
 1276    -2.6442323848573e-05
 1277    -0.0002887966133333
 1278    -0.0018871630366899
 1279     0.005780602242612
 1280    -0.00030166194296535
 1281    -0.00049214933567601
 1282    0.00076162195160481
 1283    0.00089469805788023
 1284    0.0013964140430443
 1285    -6.3138395026831e-05
 1286    2.940523078331e-05
 1287    -0.00017849000459389
 1288    0.00019678993896905
 1289    2.0836248734349e-05
 1290    3.6312024293146e-05
 1291    -0.0022156358011335
 1292    0.00070051168286071
 1293    5.4397358842862e-05
 1294    5.2886106227523e-05
 1295    0.0003474608092083
 1296    -0.0024453163354454
 1297     -0.00240185694814
 1298    -5.2331337644954e-05
 1299    -0.00016379014905627
 1300    -9.8787770376572e-05
 1301    -0.0018151299699079
 1302    -0.00053196805546184
 1303    -3.2755025037677e-05
 1304    0.00028016351044917
 1305    0.00028757531096501
 1306    -0.0064570720585899
 1307    0.00058032724296374
 1308    0.00067737920885629
 1309    0.00017657188517818
 1310    3.7106018861922e-05
 1311    -0.00084384641492941
 1312    5.5359464761138e-06
 1313    -5.5905367353149e-07
 1314    0.00015825805728013
 1315    0.00016087656171695
 1316    -0.00020067614921673
 1317    0.0034208307633004
 1318    -0.00032299640030451
 1319    -7.9535907458481e-05
 1320    0.00019597601818884
 Sym= A
 Ene=               0
 Spin= Alpha
 Occup=    0.00000
   1     0.010509415904415
   2    0.0016917677549657
   3    -0.014388393231248
   4    -0.019760070202641
   5    -0.031248651157131
   6      0.03943416754443
   7    -0.0070911329862143
   8    -0.033050186917586
   9     0.041525731388622
  10    -0.0074427231654739
  11     0.097625878544659
  12     -0.12512609880054
  13     0.021932563916007
  14      0.14086433525919
  15     -0.17344267928877
  16      0.02998650445638
  17    0.0017756149949333
  18    0.0014867068822441
  19    -0.0025992943868832
  20    -0.010139914062588
  21    -0.00068734495404124
  22    -0.00053992815349141
  23    0.00012645794226875
  24    0.00096944276877495
  25    0.0044406088396615
  26    0.0011104451622121
  27     0.010876578203007
  28     0.021692939254414
  29    -0.052142718185355
  30    -0.030757008181989
  31    -0.0055230465203955
  32     0.022189466811954
  33    0.00038897177197786
  34    -0.0075511188932543
  35     0.029361033956554
  36    0.00037110582847582
  37     0.020676802904063
  38    -0.083279036514441
  39    -0.0018581184983283
  40      0.02395350890711
  41     -0.08877080995806
  42    0.0010852891858835
  43    0.0016791466878082
  44    0.0001513029801167
  45    -0.00023138757185472
  46    -0.0038319122697374
  47    -0.0091970291449799
  48    0.00036850109844245
  49    -0.00039307153553351
  50    0.0015492709300126
  51    -0.0020911913906046
  52    -0.012997952852889
  53    -0.012576413237562
  54    -0.024021492840214
  55     0.055163739873673
  56     0.039813452058099
  57    0.0057764241996863
  58      0.01383324742524
  59    0.0031064892552006
  60    0.0068475863558271
  61     0.019027681541226
  62    0.0038251023939026
  63    -0.022530952707736
  64    -0.051203734116937
  65    -0.011457328906866
  66    -0.015970814769834
  67    -0.063993254470733
  68    -0.010986284473406
  69    -0.0013955540887784
  70    0.00065489298978954
  71    0.0011581483961328
  72    -0.0021128963500112
  73     0.001557412352273
  74    -0.001805875591358
  75    -0.00062381123316923
  76    0.00076872605897093
  77    -0.002401414513644
  78    0.0022123721401443
  79    0.0021357284979708
  80     0.004471778634092
  81    -0.010606961653543
  82    -0.0049980326685804
  83    0.0035210984770204
  84    -0.0059275358099882
  85    -0.0016958720645026
  86    0.0045763816624117
  87    -0.0073605919369191
  88    -0.0021827050687791
  89    -0.013246650104641
  90     0.022997298363771
  91    0.0066586594169965
  92    -0.014024333518119
  93     0.017672508198177
  94    0.0051631711859787
  95    2.7103426930647e-05
  96    0.0010923665271432
  97    -0.00084805864326986
  98    0.00011455224531313
  99    0.00025008376716719
 100    -0.00079489982960196
 101    0.0013057841602956
 102    -0.0013023881365094
 103    0.00059083711911849
 104    -0.00052271153092787
 105    -0.012932332437425
 106    -0.026454527696239
 107      0.06258409642218
 108     0.040936048147525
 109     -0.01548581882496
 110    -0.0061569480294305
 111    0.0030123587476725
 112    -0.021142914147619
 113    -0.0076835757887642
 114    0.0034549355131687
 115     0.059324012062656
 116     0.022718012508916
 117    -0.011102628123009
 118     0.065730058965345
 119      0.02010939114353
 120    -0.0072439110393012
 121    -0.0012908722009968
 122    -0.0011288217259484
 123    -0.00035585424377851
 124    0.0025729689712471
 125    0.0016460758111633
 126    -0.0021102884896273
 127    -2.1882058969646e-05
 128    0.00060395899481037
 129    0.0038744097570768
 130    0.0020888064379991
 131     0.014468796102763
 132     0.030432335069595
 133    -0.071842163362102
 134    -0.044207909648901
 135    0.00071147332721879
 136     0.018731239982314
 137    -0.0012446108935248
 138     0.001549514923745
 139     0.025433555853737
 140    -0.001936012904307
 141    -0.0012903975128196
 142    -0.071819325324641
 143    0.0047977518957065
 144    -0.0092516578605477
 145     -0.07507960473443
 146    0.0070918093299596
 147    0.0013799113428571
 148    2.5234107901179e-07
 149    0.00063515647933153
 150    0.0028344220258008
 151    -0.00046508557978317
 152    0.0029320978702064
 153    0.00036067579731964
 154    0.00024470966846348
 155    0.0045639910489936
 156    -0.0002662373463026
 157    -0.0032692261950985
 158    -0.0057829274421024
 159     0.013279679474317
 160     0.010281546585587
 161    0.0060197411811319
 162    -0.0054995715278235
 163    -0.0032777071492567
 164    0.0073094333927337
 165    -0.0065911563321736
 166    -0.0045316375647966
 167    -0.022113725109645
 168     0.020120847337229
 169     0.012115524859121
 170    -0.018360771000039
 171     0.016284880666425
 172     0.015695737147242
 173    0.00060485453240537
 174    -0.0016268919095672
 175    0.0013134568668139
 176    0.00059384618583932
 177    -0.00049389069366929
 178    0.00087165808136253
 179    -0.0019174395389006
 180    0.0021390957709683
 181    0.00051010999026104
 182    0.00071016412059757
 183    0.0011052647566851
 184    0.00032433299925085
 185    -0.0021126275690653
 186    -0.0013830011275247
 187    -0.0014890111642917
 188     0.013039090004485
 189     0.002369431560911
 190    -0.0014939431162947
 191     0.013847870056508
 192    0.0024200269267047
 193    0.0045749396289524
 194    -0.040858738841475
 195    -0.0075572046836133
 196    0.0049370102289301
 197     -0.05984470890976
 198    -0.0087685485466547
 199    -0.00098128436703393
 200    -0.00051642092830558
 201    0.0013196374673392
 202    -0.0014582470251357
 203    -0.0013169390264825
 204    0.00034911200536029
 205    -0.00013343929461343
 206    -6.4494857220501e-05
 207    0.00077402861383448
 208    -7.7207180864366e-05
 209    0.0018034389368234
 210     0.003453274248127
 211    -0.0064687135590621
 212    -0.0083053608321904
 213    0.0019481531878129
 214    -0.0068800897563416
 215    -0.001682980598796
 216    0.0025195881962768
 217    -0.0089122380279983
 218    -0.002018377373119
 219    -0.0068056997256478
 220     0.026166620667364
 221    0.0065807607437613
 222    -0.0085476709568634
 223     0.025624430039382
 224    0.0045482197401643
 225    0.00023383193072006
 226    0.00044049261201376
 227    -0.00012834131556091
 228    -0.00012716639167963
 229    0.0012304547088022
 230    0.00051806916358618
 231    0.00030920667736266
 232    0.00048363022476874
 233    0.00022207324925414
 234    0.0015517687154383
 235    -0.0037739444157958
 236    -0.0079860069905644
 237      0.01884412203287
 238      0.01266659682548
 239    0.0006488323300926
 240    0.0039341732077899
 241    -0.00079219779092693
 242    0.00082480572513317
 243    0.0053709778208582
 244    -0.0010707271169017
 245    -0.0023297954589856
 246    -0.015989913253273
 247    0.0027308325017088
 248    -0.0024391039408069
 249    -0.016582450191593
 250    0.0041637482485116
 251    -0.00052273084723665
 252    5.2776179363819e-05
 253    -0.00026799965357543
 254    -0.00096306072918488
 255    0.00025708064770824
 256    -0.00042959015317946
 257    -0.00031029557489665
 258    -0.00043158437046661
 259    -0.00053157428382029
 260    0.00032215821336076
 261    -0.00093140248256994
 262    -0.0021806635438303
 263    0.0052006748035272
 264    0.0029475484787182
 265    0.00034519063296582
 266    -0.0019489667376403
 267    0.0013858446055913
 268    0.00046831835770289
 269    -0.0026051332162906
 270    0.0018664499014585
 271    -0.0012322278569611
 272     0.007107531537011
 273    -0.0055172066280422
 274    -0.0015052707035773
 275    0.0084057595053536
 276    -0.0050980880702597
 277    0.00041823537224329
 278    0.00014863558162251
 279    -0.00052843960722738
 280    8.0853044481238e-05
 281    -1.4917848443889e-05
 282    0.00019953108963364
 283    8.6800162645957e-05
 284    -0.00091053416379183
 285    3.4247627034138e-05
 286    -7.7089821791867e-05
 287    -0.0005572231110578
 288    -0.0012333791485774
 289    0.0029286410664072
 290    0.0019363873585174
 291    -0.00077076339919136
 292    -0.0019048120337523
 293    -0.00041869436437912
 294    -0.0010029964577264
 295    -0.0024691475061025
 296    -0.0005900196243029
 297    0.0031006238972204
 298    0.0069839250627919
 299    0.0014961819073243
 300    0.0025931449675081
 301    0.0075205188367414
 302    0.0018732648879138
 303    -9.3907797095811e-05
 304    0.00019501312110288
 305    6.3833356428453e-05
 306    0.00030210423371055
 307    0.00051808906462243
 308    3.8235490147481e-05
 309    0.00013249998831466
 310    4.3951601936821e-05
 311    -5.5678721808782e-05
 312    0.00086464003920747
 313    0.0048218793806659
 314    0.0096610053135577
 315    -0.022503701041081
 316    -0.015769447542214
 317    -0.00075712630482786
 318    0.0049105859912269
 319    0.00070107434410889
 320    -0.0011784507864499
 321    0.0068457619271662
 322    0.0011273418310216
 323    0.0027275914941121
 324     -0.01925334895071
 325    -0.0027486955153158
 326    0.0043754167892705
 327     -0.02162319738929
 328    -0.0035698480461322
 329    0.00032331450832762
 330    0.00015201785448283
 331    -0.00031887260386369
 332    0.00066364571308177
 333    0.00024216859402073
 334    0.00078355715356898
 335    -0.00018941311729831
 336    -0.00025943557201572
 337    0.0012247705983555
 338    0.00036129255872494
 339    -0.015567444378271
 340    -0.0024709213672446
 341     0.021429787616316
 342     0.032762473070992
 343    -0.0022505312101286
 344     -0.19374120872541
 345    -0.0023874055059987
 346    -0.0021632344003042
 347     -0.20387775102324
 348    -0.0028465153036518
 349    0.0065493425379095
 350      0.60936867595131
 351    0.0089916393641735
 352     0.019603192523485
 353      0.85192143425085
 354    0.0027479728244301
 355    -0.010947595123394
 356    -1.0485044979225e-05
 357    0.0021245521340724
 358    -0.020578458382797
 359    -0.0017573129395732
 360    0.0048411200653568
 361    -0.00023444191773441
 362    -0.0018499394046063
 363    0.0085493719305121
 364    0.0015194749753401
 365    -0.0019035841894404
 366    -0.0069609409553513
 367      0.01395257647446
 368     0.012901437864066
 369    0.0074500269538057
 370     0.022421579323799
 371    -3.5727689773105e-05
 372    0.0097981500094531
 373     0.027240685520709
 374    0.0001491595247037
 375    -0.029097523299239
 376     -0.08109373516741
 377    -0.00064066331187979
 378    -0.023753402207884
 379    -0.074193139046793
 380    0.00069370764936006
 381    -0.00043335261613301
 382    0.00018632926607121
 383    0.00019354008359373
 384    0.0027336777228913
 385    0.0050814931169355
 386    -0.00024458081792583
 387    5.2117993063287e-05
 388    0.00055591643061578
 389    0.00077192265147089
 390     0.010606609433641
 391     0.070523547647203
 392      0.14311418970947
 393     -0.33947964708984
 394     -0.21533839257272
 395    -0.00018275466794246
 396    -0.080094256346512
 397    -0.0024685719137019
 398    -0.0015113048258781
 399     -0.10989556504267
 400    -0.002139577692546
 401    0.0010618425990307
 402      0.30958808496518
 403     0.009061827216204
 404     0.012211125712222
 405      0.34132672388483
 406    0.00043540068409133
 407    0.0075947293535238
 408    0.00071409828194948
 409    -0.0017749096401022
 410     0.013081562199406
 411    0.00082991712549133
 412     0.010983392007375
 413    -0.0022556248360638
 414    0.0027485836123825
 415     0.019122410369888
 416    -0.0037949563645317
 417    0.0052870474800999
 418    0.0096786799014254
 419    -0.021622992431209
 420    -0.017455509150422
 421    -0.00038859619985969
 422     0.021354665648268
 423    0.0041947910882758
 424    -0.00035192645580665
 425     0.027949809987874
 426    0.0058306035095387
 427    0.0015708819319898
 428    -0.080350129133482
 429     -0.01597853721296
 430    0.00028635883444444
 431    -0.083830107708732
 432    -0.019029133528712
 433    -0.0015510604884486
 434    0.00030375772019077
 435    0.0099020836148595
 436    -1.4918662710512e-06
 437    -0.00016416208220694
 438    -0.00029649923441343
 439    0.00032861135284427
 440     0.013265559630828
 441    -1.7888357742683e-07
 442    -0.0013099367691666
 443    -0.057730046462728
 444     -0.11456762801042
 445      0.26221738563803
 446       0.1907398764244
 447    -0.0047076404712245
 448    -0.069463609674318
 449    0.00091565116625075
 450    -0.005672731663361
 451     -0.09534922595253
 452    0.00093108761572011
 453     0.016607034774845
 454      0.26295581705986
 455    -0.0026004354566156
 456     0.020375670927423
 457      0.30187061647566
 458    -0.0067429208350969
 459    -0.006717926005512
 460    0.0011310488913852
 461    0.00048072090852934
 462    -0.011636185954517
 463    0.0006910098973653
 464    -0.0081004045435374
 465    -0.0036608586767988
 466    -0.0020343486549036
 467    -0.013737755743494
 468    0.0033186337423579
 469    -0.00072647274247885
 470    -0.0047493821428764
 471    0.0091185592656079
 472    0.0085499823704612
 473    0.00094764316446136
 474     0.024035923285746
 475    -0.0049892630110823
 476    0.00087767143301509
 477     0.029329390745022
 478    -0.0065918631239887
 479    -0.0026921175189753
 480    -0.087671212823529
 481     0.020041529826731
 482    -0.0029315547202285
 483    -0.078866762430086
 484     0.014033916952801
 485    0.0018800802173523
 486    4.5080792641075e-05
 487    -0.0057657940373107
 488    0.00076420461592625
 489    -7.9857838407472e-05
 490    -0.00018680476183207
 491    -0.0004464695004001
 492    -0.011016486257414
 493    -0.00038759475348305
 494    -0.00029082923755874
 495    0.0019230170894189
 496    0.00038136765305324
 497    -0.0043452937825345
 498    0.0029090354011685
 499    0.0063851559788058
 500     0.044833747855971
 501     0.013211216029055
 502    0.0065805439657332
 503     0.047034254025608
 504     0.013810143616213
 505    -0.020249750253764
 506     -0.14243882984956
 507    -0.041098712783399
 508    -0.025297641529809
 509     -0.19821037057225
 510    -0.057944915284216
 511    -0.0028289192641401
 512    0.0011394741305364
 513    -0.0018031547004157
 514    -0.0033920999272092
 515    0.0014324460941749
 516    0.0016507707664545
 517    -0.00037649038134578
 518    -0.00087303296945578
 519     0.001586646284815
 520    -0.00055914645287098
 521    -0.0036343990983262
 522    -0.007205626982014
 523     0.017642249141358
 524    0.0091961395471924
 525    0.0048274077576175
 526    -0.0056764191007525
 527    -0.0028992760895403
 528    0.0065112243191514
 529    -0.0067331493123648
 530    -0.0033184520031025
 531    -0.018512225041394
 532     0.020846385167143
 533     0.010779747204302
 534    -0.018424044422189
 535      0.01612432874226
 536    0.0067819747115207
 537    -0.00014787630553549
 538    -0.000873940839275
 539    0.00050287720851331
 540    0.0010499541629436
 541    -0.0013826467145951
 542    -0.00038544914175249
 543    -0.00051740078471203
 544    -0.0004815687022306
 545    0.0014218847592484
 546    -0.0020980653272789
 547    -0.014593960256189
 548    -0.029181468138779
 549     0.068198444118416
 550     0.044890972930872
 551    -0.0027929993778787
 552     0.016819938832263
 553    -0.0033730059386554
 554    -0.0034014529096955
 555     0.023207091226761
 556    -0.0037521115027186
 557     0.010646342393973
 558    -0.063598292825222
 559     0.013856287024578
 560    0.0085550658324375
 561    -0.074669691557962
 562    0.0062532613757575
 563    -0.0015083112503715
 564    0.00046551168722929
 565    -0.00092557234047583
 566    -0.002706272069024
 567    -0.0011618683432721
 568    -0.0019805042705267
 569    -0.00043373319199215
 570    -0.0010473960349571
 571    -0.0038041991230801
 572    -0.00050514026584418
 573    -0.0061142396005437
 574    -0.011958668924766
 575     0.029705956817972
 576      0.01572024325955
 577    -0.0022635087657783
 578    -0.005810725944054
 579    0.0073037311060664
 580    -0.0026705845588572
 581    -0.0071599620362483
 582    0.0098437349052119
 583     0.008341412845948
 584     0.021693569537398
 585    -0.028121459440065
 586    0.0062733240341702
 587     0.017564000119368
 588     -0.02904077260263
 589    0.0013923366352994
 590    -0.00087174597146836
 591    -0.0014628056592393
 592    0.00030242074255036
 593    0.00050353793515055
 594    0.0022205735803637
 595    -0.00016021187792562
 596    -0.0021510079297726
 597    0.00023513889065157
 598    -0.00052575566894873
 599      0.01583957795024
 600      0.03288429207604
 601    -0.075769994317224
 602    -0.052879228884293
 603    -0.00044947280278752
 604     0.019338786674764
 605    -0.0015420155085843
 606    -0.00042899172975752
 607     0.026661222549652
 608    -0.0027240804449441
 609    0.0013663202709564
 610    -0.074103922689586
 611    0.0049749787007367
 612    0.0018387059965371
 613    -0.083026596600557
 614      0.01146803516031
 615    0.0016932573989214
 616    -0.0002038768173099
 617    0.0006170829534201
 618    0.0028745991075759
 619    -0.00021278115142619
 620    0.0025911888532062
 621    0.00072471983566581
 622    0.00073846034225822
 623    0.0049620921095078
 624     0.000935504272936
 625    0.00027460002744659
 626    -0.0011622510038299
 627    9.6564435379488e-05
 628    -0.0033993557805293
 629    0.0020894109397986
 630    0.00055105393412051
 631    -0.003826736275657
 632    0.00022495261097824
 633    6.1291543909135e-05
 634    -1.9170962445118e-05
 635    4.5900680036543e-05
 636    -0.00013297315430565
 637    2.5500831929916e-05
 638    -1.2310553106564e-05
 639    -0.00038204998117936
 640    -0.001394070914666
 641    0.0007379557217552
 642    0.0012718984191224
 643    -0.00016866717425086
 644    0.00018185177097897
 645    -0.001615628579878
 646    0.0012280742080235
 647    -0.002024729568031
 648    -9.2752747967393e-06
 649    -3.0804797870014e-05
 650    3.5008605434998e-05
 651    -4.7385004131947e-06
 652    0.00018610428260853
 653    -0.00063127129885071
 654    -0.00097143306961551
 655    -1.3588052066064e-05
 656    -8.9318608753542e-05
 657    3.6769074944232e-05
 658    -0.0012282769795045
 659    0.0049623712378786
 660    -0.00023411386120167
 661    -9.8898611518223e-06
 662    -0.00028954751697025
 663    -0.0011027913860119
 664    -0.0032825584199813
 665    -9.5099842305524e-05
 666    0.00035506726704452
 667    -9.5243318841541e-05
 668    -0.00094942443267731
 669    -0.00050397899588886
 670    -0.00014952986359972
 671    5.1157382321455e-05
 672    7.8259318899445e-05
 673    -0.0021607672462248
 674     0.001792418460353
 675    1.9947207589046e-06
 676    -0.00016190007869858
 677    -7.1140024116903e-05
 678    0.0014397450255421
 679    -0.002524290378004
 680    2.4289270791056e-05
 681    -3.6217217744615e-05
 682    0.00012299603233953
 683    -0.00057941589563094
 684    0.0011295683582866
 685    0.0057042355006115
 686    -0.00036342252193508
 687    -0.0016001134430829
 688    -0.0017093921244659
 689    -0.00013907165477218
 690    -0.0017391212441521
 691    -0.00097237312775581
 692    0.00017607886837064
 693    5.5922736582234e-05
 694    7.6661520398201e-05
 695    -8.4497043280857e-05
 696    2.9809347519935e-05
 697    0.00045514029056832
 698    0.0014335376442256
 699    -6.3538306772383e-05
 700    -0.00070043587095679
 701    -0.001193055999473
 702    0.00095158710046268
 703    -0.0012594198873863
 704    0.0019415281755813
 705    -0.0034389440046534
 706    1.5963445187514e-05
 707    -3.8102906130853e-06
 708    -0.00019750555517065
 709    -5.8000025577168e-05
 710    -0.00010196895808008
 711    0.0026137999771688
 712    0.0034911886833974
 713    0.00015014972654092
 714    -0.00019502222044926
 715    -0.00018112628557281
 716    0.00097526322036487
 717    -0.0047081142270885
 718    0.00015797336295273
 719    9.0063430924595e-06
 720    -0.00011268851268954
 721    0.0017766644993986
 722    5.6994163785011e-06
 723    -2.0084737795682e-05
 724    -0.00021191938354593
 725    -0.00020711297165485
 726    0.0025338903165738
 727    -0.0052843456814649
 728    0.00024224714190041
 729    0.00010997106543443
 730    -5.3928647246111e-05
 731    -4.8580025595337e-06
 732    -0.00095694453414351
 733    3.7690200810999e-05
 734    -3.8180215164668e-05
 735    -0.00010322889680199
 736    0.00064925384706895
 737    -0.0023715197960729
 738    -5.1747296194741e-05
 739    -3.2232655657687e-05
 740    1.9373548518613e-05
 741    -9.8155292187887e-05
 742    0.00043101491995177
 743    0.0014708780237924
 744    0.00013092135763901
 745    -0.00010685563248316
 746    -0.00012951687374718
 747    4.5551590403497e-05
 748    -0.00010000025619028
 749    4.2299824251067e-05
 750    -1.2633003528323e-06
 751    -6.086054567392e-06
 752    9.1766353532848e-06
 753    -3.0791551882778e-06
 754    -1.8298192487748e-06
 755    0.00016537183961551
 756    0.00046469745121316
 757    0.0012272002796935
 758    -0.00034832085889027
 759    0.00010865894247934
 760    0.00032151509121063
 761    0.00089915193398964
 762    -0.00091108286520542
 763    -0.00094059273069079
 764    1.0108046558526e-05
 765    5.7232236675601e-06
 766    -3.9653575166644e-05
 767    2.9170435567109e-05
 768    2.4179148609676e-05
 769    0.00049768663428393
 770    -0.00030309801241147
 771    -1.6640009321028e-05
 772    -7.302804580776e-05
 773    -9.6940232437135e-05
 774    0.0010514126108947
 775    -0.001313223317597
 776    0.00015914755702727
 777    -9.5442078597216e-05
 778    -0.00016832292820784
 779    0.0007104111239143
 780    -0.00060165878622276
 781    0.00013722070868685
 782    -9.2889175907511e-05
 783    1.5757116679786e-05
 784    0.00010071150012207
 785    -0.00039767041710845
 786    7.2283533581778e-06
 787    -1.0891934823666e-06
 788    -3.7878752536464e-05
 789    0.00012468042927645
 790    -0.00051856598330521
 791    4.0690967329412e-05
 792    1.1308497818861e-05
 793    -3.9278668546099e-06
 794    -3.7664356413531e-05
 795    -0.00036217818829842
 796    -1.8802000647645e-06
 797    -3.733025444672e-05
 798    -2.5698021419658e-07
 799    -0.001008328791495
 800    0.0030890274767926
 801    0.0083753444453696
 802    0.0050274975928314
 803    -0.0004078488295636
 804    0.0014448565818666
 805    0.0014510262109295
 806    -0.0057620314487883
 807    -0.00079079249190534
 808    -0.00018439640378753
 809    9.7497199738679e-06
 810    -0.00028168617162987
 811    6.0222474745827e-05
 812    -0.00047199346967494
 813    0.00057235188165749
 814    0.0015162338036338
 815     0.006208098668387
 816    -0.0047996382818854
 817    0.00030299087309059
 818    0.00060139629106336
 819    0.0034156029509865
 820    0.00071067392334999
 821    -0.00074774789532021
 822    0.00029683078921421
 823    -0.00052452215070845
 824    0.00018006431984371
 825    0.00039112042514903
 826    0.00082612166208027
 827    -0.0043831901586846
 828    -0.0051858284123438
 829    0.00028069414046287
 830    -0.00093577047222791
 831    -0.00071096882107331
 832    0.0053228942223408
 833     -0.00336137935872
 834    0.0021605734722443
 835    0.00073124876385165
 836    0.00079905419032726
 837    0.0088918903064148
 838    0.0012277885509338
 839    0.0017931028238903
 840    0.00088247379185924
 841    0.0014279422338679
 842    -0.0028428086256166
 843    0.0016811893965879
 844    7.8307466537425e-05
 845    0.00023132076599914
 846    0.00066384892068649
 847      0.00579687681994
 848    -0.014527465055438
 849    0.00028842895608576
 850    -0.00041339651132809
 851    -0.00021648414243004
 852    -0.0010845560692748
 853    -0.0028135485341982
 854    0.00060473708175805
 855    0.00043913767953281
 856    -0.00010479668475454
 857    -0.0015022051004069
 858    0.0030993929055702
 859    0.0074100257928321
 860    0.0048861021138637
 861    0.00018291900744372
 862    -0.0097613444329524
 863    0.0024752390309499
 864    0.0029648002870236
 865    -0.0064660281503774
 866    0.00015084324308674
 867    -0.0005940558566546
 868    0.00029261397681862
 869    -5.2215493599345e-06
 870    -8.3018336389014e-05
 871    -0.0011403706127806
 872    -0.0027097035337167
 873    -0.0060705139516639
 874    -0.00089118938143549
 875    0.00058504757207403
 876    -0.0010318114413046
 877    -0.0013451473281675
 878    -0.0025004245811398
 879    -0.0075682183540673
 880    -9.11188938348e-05
 881    0.00021628949097208
 882    8.434710608818e-05
 883    1.250094613266e-05
 884    7.0318300435237e-05
 885    -0.0070005108234339
 886    -0.007222843380099
 887    -0.00060086322195167
 888    -0.00034234353386654
 889    5.5387745038551e-05
 890    0.0018435137125897
 891     0.009253959138648
 892    0.00071315762995006
 893    -0.00012408464630418
 894    -0.00070266417696659
 895    0.0021456041115319
 896    0.0024288037434313
 897    0.00043527540484347
 898    -0.00011148087342667
 899    -0.00068602553631847
 900    -0.0017562344216359
 901     0.002245583318905
 902    0.00027808430577677
 903    5.7301619389573e-05
 904    -0.00027993969491907
 905    -0.0025887720775471
 906    -0.0013539511605167
 907    0.00018015253606532
 908    -0.00096330255661884
 909    0.00014998724796526
 910    0.0095162773169846
 911    -0.0087187730850266
 912    -0.00014564092456276
 913    0.0011823097446566
 914    0.00033916085232599
 915    0.00029024659392325
 916    -0.00095600463150451
 917    -0.0050001989904159
 918    2.8704935415411e-05
 919    0.00030377027382154
 920    0.00075901015748916
 921    0.0010638905463342
 922    -0.00016301498167206
 923    0.0013807034595537
 924    6.171237631552e-06
 925    3.6563291842528e-05
 926    -8.243329319565e-05
 927    -3.9142234530798e-05
 928    1.3875165485531e-05
 929    -0.00074477278035913
 930    -0.0025792663751664
 931    -0.00090253801444178
 932    0.0012784666688521
 933    -0.0014833341949735
 934    -0.0023459172004032
 935    -0.002860560338327
 936    0.0018278849345492
 937    0.0034594547717663
 938    -2.1983500539453e-05
 939    2.3628435839396e-05
 940    2.7868631115492e-05
 941    2.6553431200318e-05
 942    0.00012994117886814
 943    -0.0031722273780475
 944    0.0016042872504984
 945    -7.4611399567967e-05
 946    -7.3486064509632e-05
 947    0.00037403915553045
 948    -0.00091412133379853
 949    -0.0041148925756156
 950    -0.00022228303054191
 951    -0.00010511201504599
 952    7.5078205097126e-05
 953    -0.0026630090620295
 954     0.006552997606688
 955    -0.00036145843187218
 956    -0.00026386698168903
 957    0.00030384781299937
 958    -0.00039297185675628
 959    0.0015204182448576
 960    1.3515700268781e-05
 961    -8.4015550165114e-05
 962    -3.3415404315641e-05
 963    -0.00019429123508225
 964    0.00047823879000409
 965    -6.7275283516345e-05
 966    9.0421984028971e-08
 967    4.671730663815e-05
 968    -0.00065974477807115
 969    0.0028839741290629
 970    -3.6867670740457e-06
 971    8.1853049063682e-05
 972    7.4786938030234e-05
 973    0.00081951781803242
 974    -0.0032475470280502
 975    0.00055212228370365
 976    -0.002488643601721
 977    -0.00024943612974284
 978    -0.00098811003051533
 979    0.0031543991809511
 980    -0.010136879161214
 981    -0.00062478224019318
 982    0.00010263522982214
 983    0.00036149006903164
 984    -0.00037227300253537
 985    0.00016750707904686
 986    0.00025708239593024
 987    -0.0023810092178416
 988    -0.0058748748824247
 989    -0.010350330479376
 990    0.0091502430107979
 991    0.0016715799770942
 992    0.0040780176949987
 993    -0.013326602040301
 994    0.0048305087596224
 995    -0.009254121588503
 996    -0.00034215207556557
 997    -0.00051949963437904
 998    -3.6195763521794e-05
 999    -0.00015429355429289
 1000    -0.00079267189044558
 1001    0.0010920356652439
 1002    0.0029624565994092
 1003    -7.0786765656379e-05
 1004    7.9500316804569e-05
 1005    -0.00032784544503586
 1006    -0.0067810707340596
 1007     0.021891877453181
 1008    -0.00061048495087113
 1009    0.0011763259178929
 1010    -0.00051972870567844
 1011    -0.0024389063189704
 1012    -0.0045100046635663
 1013    -0.00062761940540651
 1014    0.00060592623899442
 1015    8.9704217287792e-05
 1016    -0.0079937426887387
 1017    -0.0092793125542138
 1018    -0.00020483903975182
 1019    2.0394667566266e-07
 1020    -0.0012430634258332
 1021    -0.0024169889046001
 1022     0.010818603129714
 1023    -0.00025674949589836
 1024    -0.00028806824026237
 1025    0.00080250794081549
 1026    -0.00013277927646343
 1027    -0.0014209187365531
 1028    -0.00047282178391405
 1029    0.0002707521294384
 1030    -2.6376509584884e-05
 1031    0.0034857589527466
 1032    -0.010004788504366
 1033    -0.026667946023104
 1034    -0.0053722427889918
 1035    -0.0018667967415366
 1036    0.0038400937684366
 1037    0.00040525772985528
 1038    -0.0046918387396695
 1039    -0.0036049042389628
 1040    0.00015410272353897
 1041    -0.00043994859855296
 1042    -0.00024936574613379
 1043    0.00025103833621911
 1044    0.00048602978051996
 1045      0.00110040628053
 1046    0.00069549172222969
 1047      0.01591587052189
 1048    -0.0016037996557193
 1049    -0.002618146581206
 1050    0.00091258877523291
 1051    0.0047816396358386
 1052    0.0020284311396521
 1053    -0.0010946420466148
 1054    0.00020404941965058
 1055    7.499582149709e-05
 1056    0.00013966586342839
 1057    7.7716006915396e-05
 1058    -0.00016203819276147
 1059    0.0014832458747772
 1060    -0.0048297330388658
 1061    4.687591980189e-05
 1062    0.00019719862171262
 1063    0.00023929695811436
 1064    -0.0035720179726118
 1065    0.0028817817331598
 1066    -0.00018535557871681
 1067    -9.7668111937227e-05
 1068    -0.00018048895194961
 1069    0.00016232039652424
 1070    -0.0071326202247471
 1071    -8.7856150211727e-05
 1072    0.00026017003734984
 1073    0.00037156834461476
 1074    -0.010300919532729
 1075     0.010391025445272
 1076    -0.0012525563138938
 1077    0.00097329293987163
 1078    0.00020925275980167
 1079    -0.012333973687576
 1080     0.010183826791765
 1081    -0.00073368496808209
 1082    0.00080739472604699
 1083    0.0020529963572892
 1084    -0.0069678848140743
 1085     0.014128607722185
 1086    0.00076591607477601
 1087    -0.00019494499318417
 1088    -0.00081960225027909
 1089    -0.00015188453987467
 1090    0.00034399020347451
 1091    0.0028514441344685
 1092    0.00023815461563925
 1093    -0.00056787168768086
 1094    0.00049317109672021
 1095    -2.7299131657609e-05
 1096    0.00046823633421368
 1097    0.0015386661260614
 1098    -0.00011085948351419
 1099    6.5312322754232e-05
 1100    -2.7844811311473e-06
 1101    5.0031560822002e-05
 1102    1.6345368809635e-05
 1103    0.00070272272141229
 1104    0.0020759114407207
 1105    0.0014595604895219
 1106    -0.0010022418856986
 1107    -0.00098614350739749
 1108    0.0010082314681557
 1109    0.00050531757785357
 1110    0.0032454346953117
 1111    0.00067328327902845
 1112    -0.00010473941483742
 1113    -1.9911207080591e-05
 1114    7.2729747994302e-05
 1115    -4.735482971867e-05
 1116    1.429619652406e-05
 1117    0.0035910845454178
 1118    0.0045648279339563
 1119    0.00023572892090379
 1120    9.6725640057123e-05
 1121    -0.00022156893353866
 1122    0.0010737600855219
 1123    -0.0022286579218052
 1124    -6.605760723428e-05
 1125    -0.00015305495929041
 1126    3.6438000883575e-05
 1127    0.0011980403150725
 1128    -0.0049027041485826
 1129    2.5745938505186e-06
 1130    -3.261585682406e-05
 1131    2.9618481898389e-05
 1132    0.0010698455541626
 1133    -0.0015267851639086
 1134    2.3330056661393e-05
 1135    -2.9395050695016e-05
 1136    -8.2974456785695e-05
 1137    -0.00050564871861482
 1138    -0.0010674670668982
 1139    2.2789160249362e-05
 1140    5.6889140144234e-05
 1141    -5.5738239204366e-05
 1142    0.00091027415953712
 1143    -0.0025887330831942
 1144    4.1641773437173e-05
 1145    -3.1739026191704e-05
 1146    6.1855293550115e-05
 1147    -0.0011818088037545
 1148     0.005054586860346
 1149     0.016220824691026
 1150    -0.001505964381427
 1151    0.00073136927669575
 1152    0.0014976713439372
 1153    -0.00021237538798386
 1154    -0.00011352680239305
 1155    0.00025714166922415
 1156    2.9333935732721e-05
 1157    5.5094233549856e-05
 1158    3.0865383259462e-05
 1159    3.7804794571467e-05
 1160    -3.6326173581757e-05
 1161    0.0025882352913423
 1162    0.0076509832991105
 1163     0.017866176104689
 1164    0.0060810054459033
 1165     0.001350299430377
 1166    -0.0061020750961883
 1167    -0.013869991856989
 1168    0.0016803961901655
 1169     0.014157469759052
 1170    0.00014201343295532
 1171    -0.00010882833178695
 1172    -0.00033735297667888
 1173    0.00029072358510316
 1174    0.00031918983374879
 1175     0.009216409039278
 1176    -0.0019076109225855
 1177    -0.0020557579805668
 1178    0.0010991683149738
 1179    0.00020325270245616
 1180     0.013452672067216
 1181    -0.031161023778809
 1182    -0.0020286626432798
 1183    0.0013137579436673
 1184    0.0020718059262658
 1185    0.0091290950442069
 1186    -0.0028306924710362
 1187    -0.00021359812873542
 1188    0.0010012735795095
 1189    0.0020425427146885
 1190    0.0011793144289144
 1191    -0.0057613980807076
 1192    -0.00049994030940542
 1193    -5.3906064667889e-05
 1194    -7.9035299754709e-05
 1195    0.0011203448626466
 1196    -0.0058269104609988
 1197    5.8148772804369e-05
 1198    -8.8743017464218e-05
 1199    0.00050617680156241
 1200    0.00024018195278299
 1201    -0.0031582627405291
 1202    -0.00013377143307691
 1203    0.00038413996337596
 1204    0.00014380546506157
 1205    -0.00051756975341131
 1206     0.001950626514306
 1207    0.0076613010759567
 1208    -0.00042291996370623
 1209    0.00043045292708545
 1210    -0.0041213174218558
 1211    0.0017905440246121
 1212    -0.004229474743801
 1213    -0.0011935129578945
 1214    -2.075892972729e-05
 1215    2.0253195596016e-06
 1216    0.00043337897438912
 1217    -8.0838324211729e-05
 1218    0.00019780742886447
 1219    0.00045536167370949
 1220    0.0010212738261597
 1221     0.007558805253101
 1222    -7.7617474494816e-05
 1223    0.0007621451455221
 1224    0.0038688214076548
 1225    -0.00022552915896335
 1226    0.0022279962182527
 1227    -0.0036129734032248
 1228    0.00014447106607555
 1229    -0.00048869086162881
 1230    -0.00066403858743037
 1231    0.00066810130006105
 1232    -3.3648040319356e-05
 1233    0.0063612510917367
 1234    -0.0044805384157511
 1235    -0.0009583659254729
 1236    0.00078775258125879
 1237    -0.002073113688204
 1238    -0.0037941447082551
 1239    -0.0060697545132228
 1240    0.00061875635609098
 1241    -0.00062554625082772
 1242    9.4805057628729e-05
 1243    0.0075468463331251
 1244    -0.00096484362064567
 1245    -0.0011120427093737
 1246    0.00075488341406305
 1247    -0.0019249393724269
 1248    -0.0027159590944262
 1249    0.0021269468898388
 1250    -0.00062630615461942
 1251    0.00020244876017807
 1252    -0.00010638277888891
 1253    -0.00094885878047295
 1254    -0.0020223143697826
 1255    0.00014369892528812
 1256    0.00048300208280174
 1257    -0.00052547278836161
 1258    0.0042749074265544
 1259    -0.012594496768699
 1260    1.2865219021548e-05
 1261    -0.00059262284850989
 1262    -0.00048299672932496
 1263    0.0015337100169541
 1264    -0.0048425247890691
 1265    -0.0040217435063351
 1266    0.0019540303759126
 1267    -0.0003362271906369
 1268    0.0042425600445169
 1269     0.001940156817371
 1270    -0.011751828074381
 1271    -0.0020443497564258
 1272    6.3916795971911e-05
 1273    0.0005296961578493
 1274    -0.00032584098662546
 1275    0.00027168462962976
 1276    0.00027186677456928
 1277    -0.002339363042299
 1278    -0.0061044451072384
 1279    -0.0073726509593338
 1280    -0.0047075303151075
 1281    0.0010014159287359
 1282    -0.0080579749737569
 1283     0.010100003136835
 1284    0.0076256665953859
 1285    0.0079169451129998
 1286    0.00018358116537027
 1287    -0.00031998493641512
 1288    0.0006035190298565
 1289    -0.00035081431607084
 1290    8.9622365150831e-05
 1291    -0.0065492293948909
 1292     0.016767413631814
 1293    0.00016963806650222
 1294    0.0012136989269502
 1295    0.00030923036176693
 1296    0.0042909682298061
 1297    0.0055528648609276
 1298    -2.0563375882637e-06
 1299    5.759548309382e-05
 1300    -4.9335294629515e-05
 1301    -0.0021833401729306
 1302    -0.0045927257758668
 1303    0.00010533966314737
 1304    0.00051708686071742
 1305    0.00071600640515303
 1306    -0.009966655367586
 1307     -0.01033702502426
 1308    0.0012907246753441
 1309    0.00010855499770922
 1310    0.00014105542108004
 1311    0.00080542023172255
 1312    -0.00069127371306117
 1313    5.2404554897135e-05
 1314    0.00027887001407129
 1315    0.00058869901759862
 1316    -0.0038098686695329
 1317     0.014648351398255
 1318    -0.001112199479797
 1319    -0.00034797700760238
 1320    0.00025746065235905
 Sym= A
 Ene=               0
 Spin= Alpha
 Occup=    0.00000
   1     0.017109029736682
   2      0.00329093554936
   3    -0.025854686913623
   4    -0.021840334790226
   5    0.0020307503504548
   6      0.19288654555006
   7    0.0045460278581924
   8    0.0025990712200379
   9      0.20341662582694
  10    0.0043644288111773
  11    -0.0064950214404811
  12     -0.60643119141103
  13    -0.016058987691357
  14    -0.014328684288065
  15     -0.85929105408912
  16    -0.019200941606073
  17    -0.011559441872631
  18    0.00019360218592073
  19    -0.013088600967564
  20    -0.012980226688421
  21    -0.015253288387184
  22    0.0042974121046938
  23    -8.3440523828449e-05
  24     0.002102954021986
  25    0.0050747034608062
  26    -0.00043864683918879
  27    0.0086984911046223
  28     0.018558128220326
  29    -0.040943221606809
  30    -0.032394519867244
  31     0.018914053325449
  32    -0.022366973623349
  33    -0.00038785221073695
  34     0.025346431446985
  35    -0.028716955301384
  36    -0.00092728369401637
  37    -0.073334978282304
  38     0.085534403443658
  39    0.0020348164683353
  40    -0.077354106444994
  41      0.08270808184669
  42    0.0048725197920294
  43    0.00043753587093638
  44    0.00032596478367395
  45    5.6415726536286e-05
  46    -0.0010657434372415
  47     -0.00314387809605
  48    0.0024065128277361
  49    0.00046592570377141
  50    -0.00097239477760566
  51    -0.00070396945096875
  52    -0.0052596400896674
  53     -0.06189539781487
  54     -0.12465068192261
  55       0.2987796000855
  56      0.18141576237808
  57     0.012851903926189
  58     0.066932335819597
  59     0.012089914838596
  60     0.016426697164248
  61     0.092413656753043
  62     0.014937200007894
  63    -0.046244080103951
  64     -0.25964179913194
  65    -0.044540186874735
  66     -0.05053640001819
  67     -0.29461562452623
  68    -0.041637941250311
  69    -0.0070039402706459
  70    0.0018592354491517
  71    0.0047236569697105
  72    -0.012164820643874
  73    0.0044858266084096
  74    -0.0086678807562097
  75    -0.0022124208195398
  76    0.0021766147218395
  77     -0.01388572108941
  78    0.0027629740556556
  79    0.0076912953884509
  80     0.014300605099147
  81    -0.030979061941188
  82    -0.025506506723917
  83       -0.000704805524
  84    -0.022857742119382
  85     0.020757780465585
  86    -0.00095249992310389
  87    -0.029509571231974
  88     0.027970958431119
  89    0.0037341081858239
  90     0.089338611127777
  91    -0.081487660104969
  92    -0.0010452940869137
  93      0.07870619384005
  94    -0.084431496244311
  95    -3.8645685601607e-05
  96    0.00064503694646228
  97    -0.0045502530747178
  98    0.00039427370769432
  99    0.00014902902487878
 100    -0.0018193768589943
 101    0.00092876381668096
 102    -0.0072878894116334
 103    0.0018011730566606
 104    -0.0016835575746557
 105    -0.0018718203441996
 106    -0.0052119887051563
 107     0.012972592283064
 108    0.0063388569641128
 109    -0.0044826475805322
 110    -0.035468281109753
 111    0.00072737709042775
 112    -0.0063236737771713
 113    -0.045050504708895
 114    0.0003233309589542
 115     0.017932951894482
 116      0.13000759666571
 117    -0.0022315202641112
 118     0.019396563014875
 119      0.12500861212228
 120    0.0016758950703601
 121    -0.00095257232731868
 122    -0.00021252298361596
 123    -0.0021657275254479
 124    0.0022238043134671
 125    0.0092441067043856
 126    0.0010512202075159
 127    0.00060527692629634
 128    0.0028449087192434
 129    0.0011091103767463
 130     0.013584085852031
 131     0.065759912341336
 132      0.13439346995324
 133     -0.31437155230996
 134     -0.20950671574275
 135    -0.017787022365437
 136     0.073966950214688
 137    -0.011242627438387
 138    -0.023597630683588
 139      0.10141542110345
 140    -0.015467351201202
 141     0.066758614738096
 142     -0.28559315748798
 143     0.042521485473807
 144     0.069036748241557
 145       -0.314184926724
 146     0.044945136691677
 147    0.0060068099010084
 148    -0.001604708296784
 149    0.0038249969309141
 150      0.01029770263549
 151    0.0052280470096712
 152     0.011336865336325
 153    0.0015239271005388
 154    0.0030417359309942
 155     0.017425462042335
 156    0.0063050958605687
 157    -0.0062468463268766
 158    -0.014156993211837
 159     0.036370985668213
 160     0.016990808313433
 161    0.0024370030404773
 162     -0.02888158541889
 163    -0.011004320947657
 164    0.0027671285596186
 165    -0.035681314877961
 166    -0.014505089892944
 167    -0.0092903608668665
 168      0.10532281358403
 169     0.043887823408173
 170    -0.0049374903658613
 171     0.093365224190855
 172     0.039792766755016
 173     0.003496336068805
 174    -0.0015501140120069
 175    0.0064303962016792
 176    0.00088980736012702
 177    -0.0029926993152362
 178    0.0041274086490593
 179    0.0004613662734966
 180     0.011590583758821
 181    0.0025463350457944
 182    0.0012130600082281
 183    -0.0021367657756384
 184    -0.00033837933463932
 185    0.0041666471262534
 186    -0.0015568729881323
 187    0.00026493085536324
 188      0.01850178176816
 189     0.042063670250459
 190    0.00020769393931323
 191      0.01979922096568
 192     0.044322006590556
 193    -0.0010836287933488
 194      -0.0580074701908
 195     -0.13474052360908
 196    -0.0015030794208603
 197    -0.088283712141509
 198     -0.19167969823507
 199    -0.0035432233608255
 200    -0.0021811244813142
 201    0.00020417883381744
 202    -0.0019338982757582
 203    -0.0011512354568844
 204    0.0013542205945427
 205    -0.00033432454890898
 206    0.00054537985793338
 207    0.00057016515239296
 208    -0.0002048109878962
 209    0.0014012575005767
 210    0.0040585900379748
 211    -0.011057778314072
 212    -0.0029837219152796
 213    0.00090726046238171
 214    0.0005074359510411
 215    -0.0044991891132028
 216    0.0011492642712809
 217    0.00067852334468634
 218     -0.00595046549083
 219    -0.0033208244153758
 220    -0.0018778554849535
 221     0.017839363016541
 222    -0.0039158748385489
 223    -0.0029017411744734
 224     0.016334089810252
 225    0.0006624428565495
 226    -0.00094911781899401
 227    -0.00015247960457073
 228    -0.00070520850301285
 229    -0.0015471915625022
 230    0.00051505082610914
 231    -0.0022653043949797
 232    0.0001013596228131
 233    -0.00035457448224996
 234    -0.0021693897553951
 235    -0.0053438803674501
 236    -0.010575367372255
 237     0.024940001872678
 238     0.017681524732063
 239    0.0006965601216468
 240    0.0048835901593169
 241    -0.0046021839362794
 242    0.00071532021366063
 243    0.0066562379056388
 244    -0.0064469067150815
 245    -0.002647854091705
 246    -0.019636462947346
 247     0.017324702952494
 248    -0.00081509163654903
 249    -0.021395732085601
 250     0.022999534796509
 251    -0.0003462762198358
 252    0.00011542505822077
 253    -0.0015325050417435
 254    -0.0011499817584997
 255    5.5939636845005e-05
 256    -0.00065059973012868
 257    -0.00076646539709286
 258    -0.0030162960085561
 259    -0.00055141737034146
 260    0.00044873990529092
 261    -0.015258239101273
 262    -0.032983831549948
 263     0.077091240656659
 264     0.050909087314917
 265    0.0019917359564359
 266    -0.00090509776648245
 267     0.017605375489423
 268     0.002368507475235
 269    -0.0013402989995284
 270     0.024280537797075
 271    -0.0072596733450934
 272    0.0027472312404273
 273    -0.069892237845442
 274    -0.0065706489768712
 275     0.006547857072163
 276    -0.073794264232778
 277    0.0032917278307478
 278    0.00043845196930843
 279    5.4085387717711e-05
 280    0.00012298287734476
 281    0.00029596513996544
 282    0.0055021843953067
 283    0.0010815714682998
 284    -0.0011108794260075
 285    -4.7514163475328e-05
 286    -0.00081545229471994
 287    0.00084114175267329
 288    0.0019630533702022
 289    -0.0050761279742952
 290    -0.0017780616440561
 291    0.0011347956814524
 292    -0.0026621415635431
 293    -0.0062361079598868
 294    0.0016028890783931
 295    -0.0035810915579734
 296    -0.0078830390228407
 297    -0.0048176780146936
 298     0.010048088191316
 299     0.023287162813133
 300    -0.0043537564300708
 301     0.011174715664314
 302      0.02182687233866
 303    0.00051341922823178
 304    0.0016018445928749
 305    -0.00015530197130855
 306    -0.00023027950560505
 307    0.00087927955466794
 308    0.00039300586043355
 309    0.0029194535868386
 310    0.00025329570464912
 311    -0.0001804958062355
 312    0.0012979822534625
 313     0.008420404006031
 314     0.017732183144639
 315    -0.041912591605893
 316    -0.027790646664308
 317    -0.0020937919277737
 318    0.0096199356098517
 319    -0.0050739856251881
 320    -0.0026447567474023
 321     0.013237381011834
 322     -0.00559859024015
 323    0.0075585739855639
 324    -0.038391545401741
 325     0.018474063588848
 326    0.0094314232798862
 327    -0.040366358135676
 328     0.011932416807289
 329    0.0011398668562088
 330    0.00016856795404136
 331    0.00040214720486144
 332    0.0017785842876758
 333    0.0005532948262735
 334    0.0023290783052332
 335    -0.0013212990407432
 336    0.0023081416561749
 337    0.0018967719681211
 338    0.00098354814649577
 339    -0.0047969628743816
 340    -0.00084250078156007
 341    0.0066914339184682
 342     0.010096097221078
 343     0.036137676616083
 344     0.034544449090029
 345     0.001308355455181
 346     0.037827589387618
 347     0.036471984489414
 348    0.0014125762700036
 349     -0.11478019865972
 350     -0.10745782316994
 351    -0.0052793193622304
 352     -0.15922130566122
 353     -0.15821307351577
 354    -0.002147520465225
 355    -0.0017444098514227
 356    -0.0012639433280063
 357    -1.4826684044397e-05
 358    0.0086436787878767
 359    0.0022260800945605
 360    0.0010141950138862
 361    0.00063747323517832
 362    0.00019675260278509
 363    -0.0037639813839156
 364    0.00062926746991502
 365    -0.010292711702428
 366    -0.019411065896921
 367     0.045772186817989
 368     0.029416506238353
 369     0.010725969482567
 370    -0.0061724918292268
 371    0.00059082383255303
 372     0.014995653931691
 373    -0.0075551349266691
 374    0.00068478179950581
 375    -0.040887236368564
 376     0.022572542608434
 377    -0.0019832950280562
 378    -0.047712713688031
 379     0.019408801765263
 380    -0.002324354708431
 381    -0.0010752407219002
 382    0.00017378295038117
 383    -0.00024666221336594
 384    0.0012839139829852
 385    -0.0017278937734406
 386    -0.0012998460072049
 387    9.3787389354612e-05
 388    0.0003531159248151
 389    0.0025232732714827
 390    -0.0020638046268934
 391    -0.012685078490798
 392    -0.026066333145837
 393     0.061596193715225
 394     0.040006687460785
 395    -0.0056093685912998
 396     0.013827644350883
 397    0.00056366345741798
 398    -0.0069666047469572
 399     0.019101304392163
 400    0.00053646047173848
 401     0.020685503703281
 402     -0.05436330708872
 403    -0.0018892903880996
 404     0.017258995220337
 405    -0.059058308830539
 406    -0.00087543089657809
 407    -0.0014288666140957
 408    -0.0001819787201247
 409    0.00029108558487319
 410    -0.0020292807914507
 411    -0.0018081792908811
 412    -0.0017763001954863
 413    0.00039453093958556
 414    -0.00062959011379727
 415    -0.0039964818630941
 416    -0.0015721718543011
 417    0.0013332883571298
 418    0.0032299184953889
 419    -0.008541779003312
 420    -0.0045397998136764
 421    -0.0048420864757596
 422    -0.0017961234106861
 423    0.0014068133813347
 424    -0.0064234390675673
 425    -0.0026806478287847
 426    0.0017698707264637
 427     0.019140952230446
 428    0.0062765864219584
 429    -0.0057759980947761
 430      0.01696713290728
 431     0.011398841221099
 432    -0.0021832664177081
 433    -0.00092301180864858
 434    -0.0012701311046565
 435    -0.0023929264111596
 436    0.00024912235395109
 437    0.00015640191661721
 438    -0.00032573136258627
 439    -0.001962396107401
 440    -0.0034002336557758
 441    -0.00020873169697875
 442    -0.00027837150667292
 443     0.011702678170691
 444     0.022386742452677
 445    -0.051041223905598
 446    -0.039663270009416
 447    -0.0041878068129801
 448      0.01285430908654
 449    -0.00029065138120105
 450    -0.0046833744648297
 451      0.01764986458359
 452    -0.00036629993546504
 453     0.015491831301578
 454    -0.048877616220943
 455    0.00099230245788479
 456    0.0088513625607313
 457    -0.058397790668328
 458    0.0013694673203434
 459    0.0015103073825118
 460    -0.00013626441551295
 461    -0.0001644614900035
 462    0.0022338601033416
 463    0.00074411108880222
 464    0.0010066838191927
 465    0.00058502667687014
 466    0.00063532812689367
 467    0.0030950094500232
 468    0.0013543921633891
 469    0.00083830952907214
 470    0.0018451629045355
 471    -0.0047102754664686
 472    -0.0019035144560348
 473    -0.0048777835574485
 474    -0.0042871719397772
 475    0.0015227056229291
 476    -0.0057721294016875
 477    -0.0052968529748216
 478    0.0020043175233739
 479       0.0178326162966
 480     0.015545759423326
 481    -0.0058279222447691
 482     0.013699036146026
 483     0.014909607223447
 484    -0.0057549305249587
 485    -0.00063945893336469
 486    0.0010986192345203
 487    0.00094252571405343
 488    -6.6668356649519e-05
 489     0.000398448682134
 490    -6.0896616726945e-05
 491    0.0020390975924761
 492    0.0022178419835342
 493    6.2416244840485e-05
 494    -0.00041419366375336
 495    0.00089191166458578
 496    8.7962797574661e-05
 497    -0.00066381330094588
 498    -0.0042520072259113
 499    0.0031302535449655
 500    -0.026287419301257
 501    0.0047443185564693
 502    0.0033424455873107
 503     -0.02768384205718
 504     0.005123828611583
 505    -0.009231265494541
 506     0.083175820004129
 507    -0.014522746278125
 508    -0.015270878662019
 509      0.11813810959495
 510    -0.021644894693826
 511    0.00062835568878986
 512    0.00094954476245056
 513    -0.00040186456609934
 514    0.0017161499795934
 515    -0.00065447640540713
 516    -0.0004651058174298
 517    0.00032791399992581
 518    0.00041540328428779
 519    -0.00071778125959234
 520    8.559573586118e-05
 521    -1.5657349570732e-05
 522    0.00030326477473666
 523    -0.0014424929383363
 524    0.0015023392446788
 525    -0.00081749010529176
 526    0.0038451671875294
 527    -0.00060408874401672
 528    -0.00097477435278732
 529    0.0047020088916171
 530    -0.00091827682564128
 531    0.0033708477287451
 532    -0.014094643798911
 533    0.0019489844870238
 534    0.0010760193452916
 535    -0.012047477313492
 536    0.0037614175140006
 537    0.00011134213485532
 538    -0.00017055328709076
 539    -0.00036309440063047
 540    -0.00032518532193078
 541    0.00087839240846062
 542    -0.00017518034420345
 543    -0.00029532600481333
 544    0.00014796639824003
 545    -0.00050523103016713
 546    0.0015328766909672
 547    0.0088312398604276
 548     0.017980349346221
 549    -0.042503676906469
 550    -0.026956028372723
 551    0.0010858532782321
 552    -0.010181092968996
 553    0.00077643855071078
 554    0.0011292962760873
 555     -0.01394932884572
 556    0.00092215222595939
 557    -0.0041772862593565
 558      0.03914890667497
 559    -0.0029130327489444
 560    -0.0013246098588226
 561     0.043862645005219
 562    -0.0023633151138083
 563    0.00095326464951589
 564    -0.00011476027873316
 565    0.00023423374437467
 566    0.0017502976528792
 567    0.00039808998019337
 568    0.0015199154283455
 569    0.00017771468596756
 570    9.7365286807111e-05
 571    0.0022618908832539
 572    3.4994141295712e-06
 573    -0.00093558475225528
 574    -0.0015057470825478
 575    0.0031728533488812
 576    0.0034144890666836
 577    -0.00040435429455087
 578     0.004185851331894
 579    0.00026188693258883
 580    -0.00068749800567567
 581    0.0052284518949314
 582    0.00049237218561804
 583    0.0013593393878814
 584    -0.015338330181769
 585    -0.00085576972717856
 586    0.0031588369978921
 587    -0.014536638836857
 588    -0.0029592921767439
 589    -0.00010131193180332
 590    -0.0001673571647163
 591    0.0010339783283082
 592    -1.8914931426616e-05
 593    -0.00042361190090991
 594    -7.9170817602126e-05
 595    -0.00029884979084356
 596    0.0017217355822359
 597    -0.00040040792044409
 598    0.00051118110948848
 599    -0.0092246768659439
 600    -0.019143838141548
 601      0.04458741203767
 602     0.030243544149098
 603    -0.0012136150313866
 604    -0.011050341146138
 605    -0.0014405081495897
 606    -0.0015247789288969
 607    -0.015260809227694
 608    -0.001568163703117
 609    0.0043498796918587
 610     0.042450581827853
 611    0.0050771871624372
 612    0.0040505156393842
 613     0.048474578186555
 614    0.0041231707818367
 615    -0.00098640225783721
 616    0.00019897864593056
 617    0.00028704886514828
 618    -0.0017419195814077
 619    0.00038390715121046
 620    -0.0016782407728876
 621    -0.00068779421734262
 622    0.00031642621741948
 623    -0.002780697694995
 624    -8.6725188182321e-05
 625    0.0025607807651871
 626    -0.0050931878217135
 627    -0.039355821350696
 628    -0.010104497697027
 629    0.0026384330940366
 630    0.0039014281519642
 631     -0.01442092876737
 632    -0.012763666186377
 633     0.010701253440339
 634    -0.0001832085556122
 635    0.00031498242530165
 636    -0.00059731860337421
 637    -0.00017662984200724
 638    0.00045679875089063
 639    -0.0025701610022368
 640    -0.011382782295577
 641     0.015749000773309
 642    0.0045748836824697
 643       0.0024106020403
 644    -0.0023795669406704
 645    -0.0061255595299215
 646    0.0053301717643234
 647    -0.012541280934308
 648    0.00021375536850177
 649    -0.00016303681745552
 650    0.00038302398902124
 651    3.329304991881e-05
 652    0.00034478067273544
 653    -0.003719135884562
 654    0.00082413053385411
 655    4.2359272172634e-05
 656    -0.00046546683674555
 657    0.00035422596201208
 658    -0.0045692167379158
 659     0.015778050980638
 660    -0.0013110030523855
 661    -8.698273477104e-05
 662    -0.0011313890376708
 663    -0.017159853781274
 664      -0.0155326129707
 665    -0.00050876733006732
 666    0.0011560946492183
 667    0.00039836962820156
 668    -0.0034363073048333
 669    -0.0052521703363317
 670    -0.00070193438817287
 671    -0.0004023729841448
 672    0.00026174579080407
 673    -0.012711069820653
 674     0.027062304175687
 675    -0.0007867629294575
 676    -0.00042282411437512
 677    0.00058299113164772
 678    0.00093728988114321
 679     0.015648264943148
 680    0.0008609191691276
 681    6.1849067073823e-05
 682    0.00058706556588677
 683     0.001112974137439
 684    -0.0030917481328797
 685    -0.0036603314726688
 686    -0.001684130956325
 687    0.00084603395686476
 688    0.0035141041525173
 689    0.0011629686782049
 690     0.001107616208227
 691    0.0063834600081051
 692    0.00049596979186371
 693    0.00032820594891755
 694    0.00024593762958124
 695    -0.00022671608365079
 696    0.00015713583972359
 697    0.0020725987875094
 698    0.0050594829027555
 699    0.0080455958553628
 700    -0.0024762172460134
 701    -0.0037005628890686
 702    0.0054588524949426
 703    -0.0031261732344385
 704    0.0057447116663467
 705    -0.015970350404495
 706    0.00016610568148638
 707    -0.00046216263639699
 708    -0.0011129013489957
 709    -8.75601694375e-05
 710    -0.00044505041039099
 711    0.0075359946833539
 712    0.0060415033424379
 713    0.00045246123817487
 714    -0.00030245532405102
 715    -0.0014232228462121
 716    0.0035572092693899
 717    -0.021041446360862
 718    0.00039131607311354
 719    0.00013474807848358
 720    -0.00065650362502327
 721    0.0034255425933965
 722    0.0012765485800287
 723    -0.00019707747884742
 724    -0.00091180866272971
 725    -0.00059606038677977
 726     0.002494988229435
 727    0.00086576459289792
 728    0.00063141686961859
 729    -0.00023469150926001
 730    -0.00062570557163127
 731    0.0010686326989678
 732    0.0011080204706704
 733    0.00020659317907085
 734    -7.5159471986327e-05
 735    -2.5667138578687e-05
 736    0.0017238139783325
 737    0.00010739462530607
 738    -0.00038270730425407
 739    0.00027015806126503
 740    -7.0878469049172e-05
 741    -0.00027157853170252
 742    0.0012789052119474
 743    0.0052134022564055
 744    0.00028980253631947
 745    -0.00030023268050478
 746    -0.00020005106499308
 747    0.00043443006053619
 748    -0.00017934484971775
 749    7.0442068560389e-05
 750    -3.8013924357783e-05
 751    -7.8095435449826e-06
 752    2.003543919246e-05
 753    -1.4963309495966e-05
 754    -2.6336438949246e-05
 755    0.00084034873161285
 756    0.0021537514630587
 757    0.0057176832932248
 758    -0.0019887461652136
 759    0.0015059945201921
 760    -0.00045718937927707
 761    0.0044401180860596
 762    -0.004547606297093
 763    -0.0013260591898088
 764    1.1790051665102e-06
 765    9.4221126299482e-05
 766    -0.00017440151255907
 767    9.1933074574115e-05
 768    4.049872274396e-05
 769    0.0014194287449103
 770    0.00044512780904351
 771    -6.4852132459082e-05
 772    -0.00032525882031044
 773    -0.00020430523942339
 774    0.0025430372178134
 775    -0.0033016091552761
 776    0.00049631262255994
 777    -0.00010641778582584
 778    -0.00040881273720914
 779    0.0033711523119704
 780    -0.0067173460274537
 781    0.00049448647189965
 782    -0.00048467508984567
 783    -5.0177891861554e-05
 784    0.00024316573329534
 785    -0.00071395393721234
 786    2.8757589338389e-05
 787    -5.1933056883761e-05
 788    -9.0327272782431e-05
 789    0.00028491655459731
 790    -0.0020153310080394
 791    0.00014393516671716
 792    4.6634816445631e-05
 793    2.5957531635643e-05
 794    0.00010579216439695
 795    -0.0014011484748327
 796    -3.0255765471155e-05
 797    -0.00011679871519776
 798    2.3192437084124e-05
 799    0.0028648867191251
 800    -0.0075768057496554
 801    -0.020344121383013
 802    0.0056720099328766
 803    0.0014414328141583
 804    -0.0052418088480702
 805    0.0069208528055445
 806    0.0064364794393447
 807    0.0020481879329157
 808    0.0005394981637159
 809    0.00023830683442051
 810    0.00034427555480683
 811    -0.00048585762915003
 812    -0.00035610999535919
 813    -0.0020378953640786
 814    -0.008336181293974
 815    0.0020630529514086
 816    -0.0012536683779652
 817    0.00017310216818348
 818    0.0069999165375868
 819    0.0015511675553818
 820     0.006594592772604
 821    -0.011826676205173
 822    -0.00096052812155288
 823    -0.00027724682141937
 824    6.4810682904254e-05
 825    5.6174876073138e-05
 826    0.0004640401666783
 827    -0.011870681839161
 828    -0.013195830757897
 829    0.0017171933991567
 830    -0.0005033298649095
 831    -0.00067818901340905
 832    -0.014838389805493
 833      0.01507885212821
 834    0.00031478538479608
 835    -0.0020198915394855
 836    -0.0017328986894207
 837    -0.0062829704449481
 838    -0.0048236331454254
 839    9.7643377374946e-05
 840    0.0001400493639606
 841    -0.00053592265548077
 842    -0.0096758697722767
 843     0.017776502006261
 844    0.00014590659343071
 845    -0.00057248677435324
 846    -0.00030338242685786
 847    -0.0023961936236229
 848    0.0074651170799435
 849    -0.00012275271090172
 850    -0.00014112488883597
 851    -0.0001910258867718
 852    0.0018100862879242
 853    0.0087979010747142
 854    -7.107497049274e-05
 855    -0.00020130313113437
 856    0.00019966747170902
 857    0.0018100077488197
 858    -0.0054083541339606
 859     -0.01531172876482
 860    0.0036779097411756
 861    0.0018279658670478
 862    0.0052132138781442
 863    -0.0027934668919157
 864    0.0061077871497885
 865    -0.0033834994957171
 866    -7.6742950450615e-05
 867    0.00013694615193067
 868    -3.304715143061e-05
 869    -0.00018729130955901
 870    -9.6335210490947e-05
 871    -0.0031148655303695
 872    -0.0097901540862485
 873    -0.009239276519213
 874    -0.005595101458903
 875    -0.00030030732654304
 876    -0.0063555954487943
 877    0.0025977125385456
 878    -0.0009002362253033
 879     0.010236173559394
 880    -0.00017370538730568
 881    -0.0006487082247721
 882    1.6510486933691e-05
 883    -0.00011882067505057
 884    7.9761492942129e-05
 885    -0.014891320451959
 886     0.015793316760928
 887    0.0012787428546527
 888    -0.001089378919579
 889    0.00084106642250887
 890    -0.0071169218632698
 891    -4.9282806805564e-05
 892    9.1497994164542e-05
 893    1.0584788880263e-05
 894    0.00012435424981326
 895    -0.0019742548037522
 896    0.0037267133605905
 897    -0.00039649518726175
 898    -0.00011170315439617
 899    0.00039620888835669
 900    -0.0052984661550231
 901     0.010910690586996
 902    9.9004238354061e-05
 903    0.00012449258915094
 904    0.00021141244121577
 905    0.0044375985645921
 906    0.0068990975650114
 907    -0.000290229090945
 908    -9.4462535185203e-06
 909    -0.00050315646166987
 910    -0.0050947365875823
 911    0.0069505318375525
 912    0.00015626470876198
 913    -0.00056230985926403
 914    0.00037389477787331
 915    -0.00051123062439123
 916    0.0015126550243121
 917    0.0048361580477945
 918    -0.00084650781381952
 919    0.0024745296493211
 920    0.0015560529394222
 921    -0.001427957989775
 922    0.0033358667033845
 923    -0.00031530610812987
 924    -5.490299347267e-05
 925    -0.00016471649090296
 926    8.2504200875787e-05
 927    3.4585805254217e-05
 928    -6.8233293815878e-05
 929    0.00065973156046293
 930    0.0020659499460419
 931    0.0015860537458768
 932    -0.00072487246025237
 933    -0.00021679878502575
 934    0.00075982081830981
 935    0.0030575218353512
 936    0.00053948837480338
 937    -0.001334050690319
 938    3.9891609470364e-05
 939    2.4698783575511e-05
 940    6.4300617938998e-05
 941    8.4430783126681e-06
 942    -0.00012384003239869
 943     0.002539107745395
 944    -0.00087614508857651
 945    -8.5130555394566e-05
 946    0.00019820426757453
 947    -2.2618577422784e-05
 948    0.0011581123070214
 949    -0.0017887769802342
 950    0.00033499300257998
 951    0.00017707621964577
 952    2.8744536281144e-05
 953    0.0015380774766949
 954    -0.0026267984975685
 955    0.00020153614035335
 956    0.00010098330280427
 957    -0.00019975148298619
 958    0.0024442907558769
 959    -0.0034247339365816
 960    -1.1828139030329e-05
 961    6.7924099243251e-05
 962    -6.2158007527234e-05
 963    0.00059999217701961
 964    8.6713122585944e-05
 965    -2.6052881018367e-05
 966    0.00011076221065303
 967    -5.8683812013871e-06
 968    -0.00072710021759027
 969    -0.00066821103640599
 970    -5.9546561856382e-05
 971    -5.2304238513446e-05
 972    -4.5984674467564e-05
 973     0.000469877618444
 974    -0.0012240649559262
 975    0.0043714687073612
 976    0.0015837103813639
 977    -0.0010059848962051
 978    -0.0013356428483237
 979    0.0013471198714468
 980    0.0022571169754048
 981    -0.0026147403845279
 982    -0.00019421909744341
 983    0.00022777511089345
 984    -0.00021356098051699
 985    4.1606130126955e-05
 986    0.00026657244175622
 987    0.0022839343085571
 988    0.0078907019427617
 989    -0.0015547245981869
 990    0.0022400662474239
 991    -0.0045968245397734
 992    -0.0038080718223837
 993      0.00285901944138
 994     0.015887134471431
 995    -0.0028209122751569
 996    -0.00044902894254011
 997    0.00023164322642143
 998    -0.0002055998731321
 999    -7.8995237126388e-05
 1000    -0.00025464583579295
 1001     0.016018673575333
 1002     0.022129646689748
 1003    -0.00088982179769575
 1004    0.00037767590186025
 1005    0.00031448623124881
 1006    0.0032495075314846
 1007    -0.010022961104018
 1008    0.00017772304035319
 1009    -0.00022758466095869
 1010    -0.00034707840753468
 1011    0.0041036086296621
 1012    -0.016115105526272
 1013    -9.4101433283769e-05
 1014    0.0003855273570483
 1015    -0.00028188732445669
 1016    0.0022170877464224
 1017    -9.5183041921373e-05
 1018    -0.00014120642336988
 1019    0.0001709002416629
 1020    -9.8307490856693e-08
 1021    -0.00093441417102025
 1022    -0.001803997189766
 1023    8.7886335352891e-06
 1024    0.00018491563953711
 1025    6.5747785216939e-05
 1026    0.0013478198493332
 1027    -0.0052548618264355
 1028    -0.00011929867656998
 1029    -0.00026242588247184
 1030    -0.00033383633351786
 1031    -0.0015768719368078
 1032    0.0030187452667973
 1033     0.022084454297804
 1034    -0.0018554425562126
 1035    0.0015486052729996
 1036    -0.0046850450090626
 1037     0.000217338422016
 1038     -0.00564713148939
 1039    -0.0004996415781286
 1040    0.00043027693154154
 1041    6.0088710051171e-05
 1042    0.00022285972471067
 1043    3.004652034532e-05
 1044    0.00012707621767778
 1045    0.0013401857614207
 1046    0.0036628962750702
 1047    0.0019930660247778
 1048    0.0051489333392037
 1049    -0.0043314574989705
 1050    0.0031384011961934
 1051    -0.009771792238456
 1052     0.011932762443079
 1053    -0.0047887786267659
 1054    -0.0002609365688178
 1055    4.0788381842372e-05
 1056    -0.00027685866756494
 1057    0.00015881079106442
 1058    -0.00046044319565696
 1059    0.0017374631656393
 1060    -0.022172691521926
 1061    -0.00028548780022546
 1062    0.00054704613186619
 1063    0.0007939429421791
 1064    0.0023100310556043
 1065    0.0051891341485357
 1066    0.00029757951116105
 1067    0.00053710730330996
 1068    -0.0009336367090653
 1069    -0.0010038174172089
 1070    0.0067623067513864
 1071    -0.00017558079520461
 1072    -0.00028407265894368
 1073    -0.00049745477729304
 1074     0.008678734124537
 1075    -0.016628968036038
 1076    -0.00061560650612029
 1077    -0.00064373347851838
 1078    -6.0415710679692e-05
 1079    -0.0023307492088236
 1080    -0.010778529199808
 1081    0.00072619494058082
 1082    0.00024461288019397
 1083    -0.00039635757122183
 1084    0.0032665812565862
 1085    -0.001482812917299
 1086    -0.00026738394856081
 1087    -0.00018855889250215
 1088    9.0456339725095e-05
 1089    -0.0010144168599308
 1090    0.0023088454795654
 1091    0.0062977980370705
 1092    -0.001677804317702
 1093    -0.0021489635849502
 1094    3.8945640068328e-06
 1095    -0.0016096332962366
 1096    -0.0018864992073846
 1097    0.00081812733851467
 1098    -6.8736726905249e-05
 1099    -0.00012887943130236
 1100    -8.9890021851053e-05
 1101    2.3610324942783e-05
 1102    0.00018598128911734
 1103    -9.9127122334698e-05
 1104    -0.00075700059843626
 1105    0.0026516503800958
 1106    0.0012751788354303
 1107    0.00051008844985438
 1108    -7.7182573587361e-05
 1109    -0.0040287495398334
 1110    -0.0028117326794431
 1111    -0.0014601236168697
 1112    3.5724758488172e-05
 1113    0.00022208520112344
 1114    -4.7059262980812e-05
 1115    0.00015501222287065
 1116    -0.00026423321165886
 1117    -0.0013871753874848
 1118    -0.0020459493321366
 1119    -0.00020895101553501
 1120    -4.9569605166036e-05
 1121    -2.1651570004787e-05
 1122    0.00095731303003046
 1123    -0.0054327086008034
 1124    -0.00047442102697974
 1125    -0.00011338895003804
 1126    -0.00039698620762216
 1127    0.00058430331248558
 1128    0.0045070589470146
 1129    -0.00012774871528853
 1130    -0.00027160929011716
 1131    0.00012825621931941
 1132    0.0026700673900835
 1133    -0.006350710927947
 1134    5.6827830746032e-05
 1135    7.3296919428232e-05
 1136    -0.00019124150494087
 1137    5.6919721118078e-05
 1138    -0.0022800572756812
 1139    -8.0842974228935e-05
 1140    5.6507414581442e-06
 1141    4.7164412367243e-05
 1142    -0.00021164387940871
 1143    -0.00040575984579329
 1144    -0.00013853432154703
 1145    -2.4907926720129e-05
 1146    -9.608693628798e-05
 1147    2.7625939283065e-05
 1148    -7.6223209283079e-05
 1149    -0.00071498627013897
 1150    0.00018571313843443
 1151    0.00010484973240406
 1152    -1.6081199144207e-05
 1153    0.00031757579821399
 1154    -0.00011914451781109
 1155    -2.5975751432763e-05
 1156    -1.2564610243944e-06
 1157    -5.9122286217081e-06
 1158    -3.5561237080724e-05
 1159    -5.4926404161242e-06
 1160    1.4287255197218e-05
 1161    -7.9073344205148e-05
 1162    4.2552132093717e-05
 1163    -0.0018065206762284
 1164    -0.0017978384207848
 1165    -0.0014486197767502
 1166    -1.5239507377371e-05
 1167    0.0037299900438304
 1168    0.0019587359842827
 1169    -0.00042268861064462
 1170    2.6778815860365e-08
 1171    0.00010609293354772
 1172    0.00013059223054619
 1173    -9.1915462955163e-05
 1174    7.9511018218676e-06
 1175    -5.2006776096552e-05
 1176    0.0016966078681217
 1177    0.00023311447995947
 1178    0.00017461292674268
 1179    3.8033166873264e-05
 1180    -0.00083110669727868
 1181    0.0065897987722371
 1182    0.00019693714213651
 1183    -0.00012892410597617
 1184    3.0986433365568e-05
 1185    0.0009206554677656
 1186    -0.0054628756065801
 1187    -0.00015549849211118
 1188    0.00023360727289141
 1189    -6.1479651743599e-05
 1190    -0.00010341723713192
 1191    0.00066653867289931
 1192    2.4303540273709e-05
 1193    5.1480888345899e-05
 1194    4.6663430075245e-05
 1195    -4.7379472319218e-06
 1196    -3.4885363983697e-05
 1197    2.3336147344583e-06
 1198    -3.5392197353573e-08
 1199    2.3051020042812e-06
 1200    0.00012228025055837
 1201    -0.00042130711314972
 1202    5.0140843398975e-05
 1203    2.4257044683908e-05
 1204    -4.861819559992e-05
 1205    -0.00029954765739591
 1206    0.00075280444332729
 1207    0.0020958765051481
 1208    -0.00044207790949745
 1209    -1.216443592814e-05
 1210    0.0013155620999705
 1211     0.000357438700618
 1212    0.00098435293929538
 1213    0.0014400202022279
 1214    4.5942688159699e-05
 1215    -5.6744060019878e-05
 1216    -0.00010258596146345
 1217    -4.2864415198673e-05
 1218    -4.3956984865429e-06
 1219    0.00047646038640322
 1220    0.0012475849085355
 1221    0.0020826782077217
 1222    -0.00019860531870441
 1223    -0.00074715709979296
 1224    0.00033890400370685
 1225    -0.0005915166772656
 1226    0.00050375667966891
 1227    -0.0015966702300893
 1228    3.6533098323425e-05
 1229    2.3721647933019e-05
 1230    3.7738286585557e-05
 1231    -2.129712548769e-05
 1232    2.3287176462164e-05
 1233    -0.00026699386616594
 1234    0.00010508122395303
 1235    -0.0001013665036772
 1236    0.00017911898807774
 1237    0.00024750489923905
 1238     0.001801099185953
 1239    0.00099040216942766
 1240    -0.00010468097327039
 1241    2.342192512179e-05
 1242    0.00025441636538369
 1243    0.00096051267296723
 1244    -0.0050420292592171
 1245    5.6262042229283e-06
 1246    4.7599018963842e-05
 1247    -9.3226028012255e-07
 1248     0.001475271011292
 1249    -0.0020456250294592
 1250    1.1494948683615e-05
 1251    4.0461963466794e-05
 1252    -1.8228205359038e-05
 1253    3.9281133565295e-05
 1254    -0.0015850523247116
 1255    4.6045216168126e-05
 1256    -8.077486192851e-05
 1257    3.5078422869401e-05
 1258    -0.0003245442666595
 1259    0.0016971897976061
 1260    -4.0518740329322e-05
 1261    0.00010934404471038
 1262    6.8804298244781e-05
 1263    -0.00085024547162202
 1264     0.002303456622354
 1265    0.0036148345990424
 1266    -0.00069621994578264
 1267    -0.0012924101472675
 1268    -0.0014986690758662
 1269    -0.0017941755319419
 1270    0.0026085696901008
 1271    0.00071074902073272
 1272    -2.9507315367451e-05
 1273    -0.00013240783893589
 1274    0.00019226856187951
 1275    -6.8041908765562e-05
 1276    -9.7197528002794e-05
 1277    0.00018517658089744
 1278    0.00064611634178202
 1279    -0.00072074438920173
 1280    0.00035025007793785
 1281    0.00020341526326979
 1282     0.001776383999068
 1283    -0.0018094904909846
 1284    -0.0046146484020074
 1285    -0.00014418584551775
 1286    -2.2556343827683e-05
 1287    -3.0467654039451e-05
 1288    -0.00019252889715856
 1289    -1.2303971552288e-05
 1290    -1.2221307001963e-05
 1291    0.0012347564889119
 1292    0.00040501402445026
 1293    0.00012066112735968
 1294    -0.00022526117843417
 1295    4.1232570220711e-05
 1296    -0.002453582893929
 1297    -0.0057047539151008
 1298    7.0276006692967e-05
 1299    -0.00014149954889483
 1300    8.7251271731566e-05
 1301    0.00079068205712335
 1302    0.0026502269403627
 1303    -0.00012117626936322
 1304    -0.00015239383910128
 1305    -0.00026859694468521
 1306    0.0047605795206252
 1307    0.0010890725649105
 1308    -0.00061293782623076
 1309    -8.1433330442498e-05
 1310    -0.00010103960140564
 1311    0.00022808978606551
 1312    -0.00013549438798226
 1313    1.4187769104021e-05
 1314    -5.1159225180357e-05
 1315    -0.00022878643381077
 1316    0.0008506215130631
 1317    -0.0047371559788544
 1318    0.00040287327705665
 1319    8.8777906839133e-05
 1320    -0.00014154859792113
 Sym= A
 Ene=               0
 Spin= Alpha
 Occup=    0.00000
   1    -0.0017057968744754
   2    -0.00038405867474487
   3    0.0027624317574685
   4    0.0022779277844858
   5    -0.0066326676285807
   6    -0.012900510141555
   7    -0.0038034473935909
   8    -0.0070505529862748
   9    -0.013682623969773
  10    -0.0039354996493037
  11     0.021063597181659
  12     0.040034451245329
  13     0.012429781271948
  14     0.031859139088527
  15     0.059257107269246
  16     0.016924746501363
  17    0.0014461640631656
  18    0.00040280022732445
  19    0.0012367680963019
  20    -9.4100028317606e-05
  21    0.0016398700822783
  22    -0.00050176158490933
  23    1.9703056803863e-05
  24    7.7410481033035e-07
  25    0.0002063454705115
  26    0.00024994618601624
  27    -0.00021293349503929
  28    -0.0010496631236942
  29     0.002522135800017
  30    0.0016327708599791
  31    -0.0055088130272915
  32    0.0079090498110014
  33    -0.00075664448234788
  34    -0.0074061544479049
  35     0.010271209159825
  36    -0.00093028756931942
  37     0.021092413338125
  38    -0.030020730258346
  39    0.0032683591694854
  40     0.024113177425807
  41    -0.030383115456045
  42     0.001403263978016
  43    -7.9169206359138e-05
  44    0.00041049620584242
  45    -9.5852500776768e-05
  46    -0.00017248202880654
  47    -0.0017810455042436
  48    -0.00033212934795773
  49    0.00044736782329127
  50    0.00060475714094765
  51    -6.2611161891701e-05
  52    -0.0027643428376043
  53     0.004277349152697
  54    0.0087899509242388
  55    -0.022044610216494
  56     -0.01144526597724
  57    -9.9712402058443e-05
  58    -0.0043601726681827
  59    -0.00028096968760479
  60    -0.00030481448128692
  61    -0.0060680983494326
  62    -0.00046184764236045
  63    2.3978152846653e-05
  64     0.017635960581572
  65    0.00096077135001633
  66    0.0024350081543311
  67     0.018973763612823
  68    0.0024093402922176
  69    0.00048605813183365
  70    -0.00011292982931505
  71    -0.00028530879838988
  72    0.00094685102028112
  73    -0.00023892944529772
  74    0.00070581852936541
  75    0.00018475914928838
  76    2.9170880460967e-05
  77    0.0010004387347214
  78    0.00022422364844143
  79    -0.0008137353297191
  80    -0.0012880558520966
  81    0.0025247243966271
  82     0.002888142059746
  83    0.00057158055242931
  84    0.0030639318218212
  85    -0.0044706317171312
  86    0.00081911562133236
  87    0.0040813456394015
  88    -0.0060508962353647
  89    -0.0025127726376428
  90    -0.012157715797933
  91     0.016930159609436
  92    -0.0018633078043056
  93    -0.011481635813638
  94     0.019474655887277
  95    -7.2133681054775e-05
  96    0.00030152094440405
  97    -0.00019586506170392
  98    4.7423820430641e-05
  99    3.7252670808468e-05
 100    -1.3396294672889e-05
 101    3.1306544665079e-05
 102    -0.00067184259371357
 103    -0.00034311805572962
 104    0.0003178591534687
 105    -0.0024600430748794
 106    -0.0049306278886271
 107     0.011919412491325
 108    0.0070211220922276
 109    -0.0024672082033719
 110    0.0025953777555905
 111    0.00078561107138275
 112    -0.0033769252633048
 113    0.0033340932002447
 114    0.00097929168572969
 115    0.0096680328935719
 116    -0.0094885954136195
 117    -0.0030101058076932
 118     0.010178005779864
 119    -0.0096223865158757
 120    -0.002505066259582
 121    -6.1193111430737e-05
 122    -0.00025641103948464
 123    0.00016468994750908
 124    0.00018867772606128
 125    -0.00066089748401828
 126    -0.00067667921094168
 127    -0.00026751236678413
 128    -0.00015875667952336
 129    0.00079914810213932
 130    -0.0010939591788975
 131    -0.0043009289756703
 132    -0.008459124025573
 133     0.020562185199799
 134     0.011749188389234
 135    0.0019002359945615
 136    -0.0039522055391769
 137    0.0010800407926381
 138      0.00263620178952
 139    -0.0054538615358097
 140    0.0014396111793154
 141    -0.0068178135287803
 142     0.015631660433388
 143    -0.0039803888208058
 144    -0.0097019642542432
 145     0.016952344772691
 146    -0.0049558321983963
 147    -0.00031890216004887
 148    0.00018674059561593
 149    -0.00038086264952718
 150    -0.00044062866798941
 151    -0.00063984746312246
 152    -0.00067031324647278
 153    -0.00023699249761983
 154    -0.00044550890164906
 155    -0.0010747477474982
 156    -0.00085351718964868
 157    -0.00058511053897774
 158    -0.00091968765789009
 159    0.0017046401442338
 160    0.0020300636075382
 161    0.0011150097697078
 162    0.0021675705058285
 163    -0.00015561639891663
 164    0.0013328226098305
 165    0.0027295161987033
 166    -0.00029511951159058
 167    -0.0042114595812405
 168    -0.007890074277992
 169    0.00038381988107496
 170    -0.0030452660234859
 171    -0.0075027307888786
 172    0.0014864246423765
 173    -0.00021469468364116
 174    -0.00015821653723625
 175    -0.00044922899659183
 176    5.0944125219645e-05
 177    0.00024213279223481
 178    -1.0912965674638e-05
 179    -0.00055587079627168
 180    -0.00094094201259246
 181    -0.00020212276376662
 182    9.4570981412793e-06
 183    0.00083252219545329
 184    -4.9127298061898e-05
 185    -0.0014811880220367
 186    0.0012202381880029
 187    0.0011712316033958
 188    -0.017298766219955
 189    -0.0084123453733745
 190    0.0010834530523042
 191    -0.018491855530418
 192    -0.0089701009335825
 193    -0.003573118514269
 194     0.053442011304485
 195     0.027187413621371
 196    -0.0016168326109162
 197     0.084289850620792
 198     0.040176772588467
 199    0.0009125984418282
 200    0.00039411155500887
 201    -0.00084839265274479
 202     0.001586838305892
 203    0.0031641910274451
 204    -0.00026730230773958
 205    -0.00028617337870458
 206    -0.000294376593686
 207    -0.0010322032445593
 208    0.00043126359647058
 209    -0.0034772035297897
 210    -0.0056747962916453
 211    0.0063455444815994
 212     0.024358619257247
 213    -0.0032768425920611
 214     0.024678499222809
 215    -3.6644212336942e-05
 216     -0.00441691355039
 217     0.032151268389912
 218    -0.00055628422831215
 219    0.0092021364979886
 220    -0.095184723472081
 221    -6.4011273390955e-05
 222     0.022977231493217
 223    -0.093150318373889
 224    0.0064096197894032
 225    -0.00033941405908249
 226    0.00071848356371116
 227    0.00014132967242663
 228    -0.00030080110554577
 229    -0.0065985427488673
 230    -0.001350846349523
 231    0.0010965386725729
 232    -0.0018809191632147
 233    -0.0011535708811638
 234    -0.0096568474231048
 235    0.0048997609663681
 236     0.010478155445019
 237    -0.024465125913725
 238    -0.018185235552155
 239    -0.00074238523749398
 240    -0.0046140394093746
 241    0.0014031151947219
 242    -0.0014415996204825
 243    -0.0063386166248907
 244    0.0019644239871937
 245    0.0021032182268481
 246     0.019384309351905
 247    -0.0053006346012564
 248    0.0074343636806398
 249     0.020107328481986
 250    -0.0068014175464514
 251    0.00053049687944904
 252    -0.00019531233661185
 253    0.00041890878720331
 254    0.0012367378717533
 255    -0.00064633649213982
 256    0.00049296879167727
 257    0.0007077828303387
 258    0.00087035392795639
 259    0.00072209101241471
 260    -0.00016745049823058
 261    0.0029672511731856
 262     0.006995475163556
 263     -0.01575156122349
 264     -0.01223641026692
 265    -0.00070109222631046
 266    0.0022446618322679
 267    -0.0039661345990394
 268    -0.00081093864889159
 269    0.0030774241728771
 270    -0.0054451897618301
 271    0.0026076927804632
 272    -0.0083409723234167
 273     0.015831427741972
 274    0.0018258983632129
 275    -0.010130312915599
 276     0.016888311938227
 277    -0.00087077868224092
 278    -0.00020674130777964
 279    0.00061059249733124
 280    -6.3260375113439e-05
 281    -2.2845461839176e-05
 282    -0.0012777953409256
 283    -0.00018212793580358
 284    0.0012008714173793
 285    -0.00013739736044073
 286    0.00025010008207879
 287    0.00030262012048697
 288    0.00062047028107868
 289    -0.001530026414162
 290    -0.00075145101215519
 291    0.00057545900168964
 292    0.0026730892389966
 293    0.0012417421450514
 294    0.00076307831452808
 295    0.0034670646409079
 296    0.0015750332896341
 297    -0.0021413492820423
 298    -0.0095672529792556
 299    -0.0046810035833302
 300     -0.00192059515318
 301    -0.011452311114676
 302    -0.0046210281539616
 303    -5.2371034866871e-07
 304    -0.00033082873904153
 305    -3.6568008928094e-05
 306    -0.00028488574343231
 307    -0.00069917184578471
 308    -0.00016461022449605
 309    -0.00070467918779473
 310    -5.9144883280685e-05
 311    0.00014353608328919
 312    -0.0013663378952664
 313    -0.0068128306888716
 314    -0.013592543797917
 315     0.033386578743515
 316     0.019663960551714
 317    0.00058689161262603
 318    -0.0062459409441164
 319    -0.00065466392843239
 320    0.0016236180371938
 321    -0.0088260694173581
 322    -0.00089346243493328
 323    -0.0016934572152968
 324     0.025393551483825
 325    0.0024997182002815
 326    -0.010707515371273
 327     0.028060790553619
 328    0.0024932137761527
 329    -0.00078765021015518
 330    -0.00017534218110067
 331    0.00030667036680791
 332    -0.00086597998723545
 333    -0.00057939675285475
 334    -0.00062550386145739
 335    0.00041203997753723
 336    -7.0226569644054e-05
 337    -0.0020374045077357
 338    -0.00064949282183499
 339     0.001445893685251
 340    0.00039521286775937
 341    -0.0044684235016795
 342    0.0028103168319493
 343    -0.0094862051411592
 344    -0.048499184882248
 345      0.01047482460252
 346    -0.010046888080535
 347    -0.051377968652748
 348     0.010879747902193
 349     0.029513163211556
 350      0.15117252845587
 351    -0.033594443883504
 352     0.047152959815876
 353      0.22442221268457
 354    -0.044760456847491
 355    -0.0039583997147657
 356    0.0010199575607561
 357    0.0035797505642686
 358    -0.0060083385755401
 359    -0.00074464293811876
 360    0.0024912446100595
 361    -0.00067823095975498
 362    0.00054734646503076
 363    0.0024829677979164
 364    0.00019970834967668
 365    0.0020472330953052
 366    0.0032742993276215
 367    -0.007473160577072
 368    -0.0062256616583151
 369    -0.0010084005227728
 370    0.0060786453755913
 371    -0.0013661215706958
 372    -0.0014973076040443
 373    0.0075117629856588
 374    -0.0016037618872773
 375     0.003673700891541
 376    -0.022089666472637
 377    0.0050940446197013
 378    0.0065062725898004
 379    -0.020908363390683
 380    0.0032784053404655
 381    6.2201427673234e-07
 382    -0.00032605888027393
 383    0.00027136599083905
 384    0.00031300077182042
 385    0.0014039841668785
 386    0.00041860843072374
 387    -0.00049654928224664
 388    -9.1399649374739e-05
 389    -0.00041214733497656
 390     0.003049960276033
 391     0.017458192607275
 392     0.036171149000093
 393    -0.084481260967289
 394    -0.058333047513726
 395    0.0015237293516891
 396    -0.018932105689046
 397    -0.0026896701111191
 398    0.0016269887749932
 399    -0.025943398383057
 400    -0.0031801366402746
 401    -0.0052871905484487
 402     0.074776299666696
 403    0.0096306905026229
 404    -0.0033678105073735
 405     0.080389648481492
 406    0.0065026336436211
 407    0.0017862253689603
 408    0.00028992510421483
 409    -0.0010792253311317
 410    0.0031453631378426
 411    0.00056832936178912
 412    0.0027281966920392
 413    -0.00097850779750599
 414    -0.00020187437872479
 415    0.0047609245343263
 416    -0.0002552987299437
 417    0.00014649838047806
 418    0.00047110830265297
 419    -0.0059726411823358
 420     0.011512458760567
 421    0.0032913142796238
 422     0.029197299975249
 423    0.0091985045530206
 424    0.0040482342670841
 425     0.037571932375275
 426     0.012162351100973
 427    -0.012896716855058
 428      -0.1112426459529
 429    -0.038229476528007
 430    -0.0086392875227074
 431     -0.10940498070617
 432    -0.025917132082856
 433    3.6939528865629e-05
 434    -0.00031520698438782
 435    -0.0049501328704149
 436    6.4903310917116e-05
 437    0.00010852890265694
 438    -3.879528943682e-05
 439    -0.0006657711536837
 440    -0.0070606999557854
 441     -0.00114795429648
 442    -0.00086758494588757
 443    -0.015040643213457
 444    -0.029662239386067
 445      0.06797296074635
 446     0.051511975402492
 447    4.5680838669268e-05
 448    -0.016765179379478
 449    -0.0011471585182408
 450    4.6048969061333e-05
 451    -0.023005399522032
 452    -0.00096349962506245
 453    -0.00031784914652214
 454     0.064551759726235
 455    0.0049733442059263
 456    0.0010796008662375
 457     0.074193810596059
 458    -0.0012500771826812
 459    -0.0017851410605018
 460    0.00028835260901705
 461    0.00024643635592028
 462    -0.0030735581280486
 463    -7.9084954738148e-05
 464    -0.0020172649912263
 465    -0.0010978934333437
 466    -9.5598168784494e-05
 467    -0.0033403790151402
 468    0.00047232242872065
 469    0.0032016928264377
 470    0.0055530106959333
 471    -0.013729662472745
 472    -0.0069281046923248
 473    0.0015018919071543
 474    0.0065219437847066
 475    0.0025098092753584
 476    0.0017298551146591
 477    0.0079772947419043
 478    0.0035895462619105
 479    -0.0053079258836512
 480    -0.023716872821685
 481    -0.0096180453100125
 482    -0.004523768314355
 483    -0.021728064925502
 484    -0.011924888892553
 485    -0.0001113269051745
 486    -0.00028985440360936
 487    -0.0016223650816288
 488    0.00018805886428296
 489    -0.00016237687014498
 490    -0.0011728792682525
 491    -0.00066725272205086
 492    -0.0029321399262847
 493    -0.00011369057432664
 494    0.00016146602927098
 495    -0.0036000673984014
 496    -0.0007271318026855
 497     0.012874268200236
 498     -0.02271107410384
 499    -0.018708531082362
 500     -0.19740897573406
 501     0.011672679469142
 502    -0.019790691280179
 503     -0.20852883550278
 504     0.012377834526039
 505     0.059325800499062
 506      0.62135747959813
 507    -0.039271327206178
 508     0.085679237670912
 509      0.91390925803456
 510    -0.044112239142291
 511    0.0071105638736264
 512    -0.0016003884819565
 513    -0.0064309125527167
 514     0.015122816985704
 515    -0.0051315304850342
 516    -0.0027724932648002
 517    0.00024018939541039
 518    -0.00037778424986006
 519    -0.0060261567360923
 520    0.0012428771443096
 521     0.014240941337552
 522     0.029834101446451
 523    -0.075743964274079
 524     -0.03507213613744
 525    -0.019573585050323
 526     0.025912783212456
 527    0.0016452897719914
 528    -0.026391890261492
 529     0.031656867821261
 530    0.0018986735873877
 531     0.077552419399385
 532    -0.095108180601201
 533    -0.0063949411644515
 534     0.073492439935307
 535    -0.080272360457309
 536    -0.0034735743226718
 537    0.0014784756669107
 538    0.0013674870198465
 539    -0.0022968167313545
 540    -0.0044314784877655
 541    0.0056929132463444
 542    0.0016611167145891
 543    -0.00097196932575926
 544    0.0010876835260888
 545    -0.0071487358680433
 546     0.011050790395947
 547     0.065470723578588
 548      0.13284289173911
 549     -0.31784061461172
 550     -0.19661643093118
 551     0.011338352494101
 552    -0.070687890280577
 553     0.008278049175467
 554     0.014028029476496
 555    -0.097647119952314
 556     0.010532659423467
 557     -0.04347715601284
 558      0.27542418948504
 559    -0.030778280932588
 560    -0.036964008480752
 561      0.31201959646556
 562    -0.031359556188789
 563    0.0070974106723672
 564    -0.0016706790409963
 565    0.0032344825258673
 566     0.012247499967495
 567    0.0044623209783887
 568    0.0099873476077156
 569    0.0019395693738094
 570    0.0017139638336606
 571     0.016907867763215
 572    0.0027423778381104
 573    0.0023175552509671
 574    0.0048313294819462
 575    -0.015856896420215
 576    -0.00024165017163501
 577    0.0032661339298706
 578     0.030078775999126
 579    -0.0045661530006623
 580    0.0040127157668539
 581     0.037533113093093
 582    -0.0056794518878711
 583    -0.011997508719289
 584     -0.11089959846614
 585     0.019056550929869
 586    -0.011605824111574
 587     -0.10221245554071
 588     0.012050883577809
 589    -0.0016419206762672
 590    0.0012040065489483
 591    0.0074653584716312
 592    -0.00098616771379701
 593    -0.0026996264030448
 594    -0.0026848828321555
 595    0.0012168659575952
 596     0.012712861796497
 597     -0.00185300303184
 598    0.0028970711522732
 599    -0.069185476062144
 600     -0.14508628057052
 601      0.33155295937766
 602      0.24820267775123
 603    -0.00020144554890118
 604    -0.080590400340598
 605    -0.0056927053204202
 606    -0.00011754659807142
 607     -0.11103171439884
 608    -0.0061736836717496
 609    0.0018691959830352
 610      0.31331385118884
 611     0.020286462998704
 612    -0.008340540642365
 613      0.35199015487382
 614     0.011881097229789
 615    -0.007464681761643
 616    0.0013090802366582
 617    0.0015246513583872
 618    -0.013014566599974
 619    0.0011512030037377
 620     -0.01185428554043
 621    -0.0032187662668249
 622    0.00099212682160701
 623    -0.020242872160129
 624    -0.0031265577208233
 625    -0.0002987882666994
 626    0.00066468692153144
 627    0.0060919934176433
 628    0.00046568159784107
 629    0.00014482713565854
 630    -0.00026728127946717
 631    0.00081933282451054
 632    0.0014769931618441
 633    -0.00066361587648848
 634    5.2308577755617e-06
 635    -6.5325001381591e-06
 636    6.5412498667341e-05
 637    -3.1763810382563e-06
 638    -2.0286125303983e-05
 639    0.00053330924666907
 640    0.0016827211734113
 641    0.0010467138718016
 642    -0.0010737052067276
 643    -0.00024280325618728
 644    -0.00022191421146189
 645     0.002169888959086
 646    0.00012698447574011
 647    0.0030244955332747
 648    -1.5783964845452e-05
 649    7.3739608964298e-05
 650    -0.00010106233627475
 651    4.6608637219601e-05
 652    -0.00010215932651948
 653    0.00082384029418808
 654    -0.0011015198862375
 655    -9.5859633975419e-05
 656    8.9754578473623e-05
 657    9.3813379408785e-05
 658     0.001598849858387
 659    -0.0043899786610798
 660    0.00033421058084794
 661    2.8660293798889e-05
 662    0.00018870999334157
 663    0.0018188845875013
 664     0.001121333183835
 665    8.3443599352467e-05
 666    -9.6280740678855e-05
 667    -2.446171690085e-06
 668    0.00024183524435376
 669    -0.00013233489410734
 670    3.3578797807766e-05
 671    8.0344914365149e-06
 672    -3.7326428157076e-06
 673    0.00098499683853983
 674    -0.0027909009761493
 675    8.7184760316826e-05
 676    1.6329461926009e-05
 677    -6.5523039555187e-05
 678    0.00023117670088151
 679     -0.00228220699991
 680    -6.6629214274808e-05
 681    -7.1712199989265e-06
 682    -3.1441362605318e-05
 683    -0.00029559745510621
 684    0.00089603312557784
 685    0.00041533264534063
 686    0.00018779616837754
 687    -0.00045210024960067
 688    -0.00055634825037566
 689    -0.0003545111098427
 690    -9.9567195986621e-05
 691    -0.0011365533561607
 692    -6.4133020059812e-05
 693    1.3425479437391e-07
 694    1.2925700013761e-05
 695    4.3232428124121e-06
 696    -6.7193723508258e-06
 697    -0.00024625313767457
 698    -0.00065062255810614
 699    -0.00060481974604597
 700    0.00033666506258362
 701    0.0002593046721481
 702    4.0928776612996e-05
 703    0.00057655240125154
 704    -0.00093346903493623
 705    0.00026261386608491
 706    -5.8162888696702e-05
 707    2.0334458978198e-05
 708    1.6190822474742e-06
 709    2.0297511000551e-06
 710    3.0581930684258e-05
 711    -0.0012196186326888
 712    -0.00090173392674156
 713    2.9555244016005e-05
 714    -1.7695768233223e-05
 715    5.6740719356385e-05
 716    -0.00026745152935697
 717    0.00099179230718794
 718    -4.6430378361872e-05
 719    5.5019285958885e-05
 720    2.4241913079531e-05
 721    -0.00053923495900441
 722    0.0014994181444799
 723    4.0785079378399e-06
 724    -1.0167272003947e-05
 725    -2.7377103913869e-05
 726    0.00013590997361866
 727    -0.00094311071958859
 728    -4.9151733272611e-06
 729    1.428748345515e-06
 730    6.7839838003585e-05
 731    -0.00020465673634523
 732    -0.0005074945321267
 733    -4.5630514335503e-05
 734    1.4799785118225e-05
 735    8.4022737466315e-08
 736    -0.00017621343280647
 737    0.00089140651652534
 738    3.5079523985919e-05
 739    -2.9402322174595e-06
 740    -4.2532932251069e-05
 741    0.00013662950985679
 742    -0.00061228066466053
 743    -0.0024528782095152
 744    -0.00018517320079324
 745    0.00019209929988406
 746    0.00015320080459905
 747    -0.00026508303560121
 748    0.00018476849227367
 749    0.00019694915079116
 750    2.4738954974832e-05
 751    -9.0916187970198e-06
 752    -1.6225204992213e-05
 753    2.8066653175742e-05
 754    2.3197877497781e-05
 755    -0.0002508071613771
 756    -0.00062470913404785
 757    -0.0022107382952127
 758    0.00058154581752108
 759    -0.00043655453616877
 760    -6.7910893644652e-05
 761    -0.0017059016611619
 762    0.0017830194712818
 763    0.0014554928468685
 764    -3.7764947532966e-05
 765    1.1046745214207e-08
 766    8.0535559570926e-05
 767    -6.2900309136305e-05
 768    -4.6169411467703e-05
 769    -0.00070012432656699
 770    0.00037644932018619
 771    5.611718348398e-05
 772    0.00013893589947176
 773    0.00013201785840625
 774    -0.0015091977185328
 775    0.0026263536426481
 776    -0.00026205302565371
 777    3.7785803780394e-05
 778    0.00023038422209315
 779    -0.0012212472567244
 780    0.00094741988080313
 781    -0.00017353567478158
 782    0.00013984296014686
 783    -2.2047006190457e-06
 784    -9.2863854136681e-05
 785    0.00042442453441082
 786    -1.3343618556923e-06
 787    8.1983501473974e-06
 788    4.9568172560554e-05
 789    -0.00014559789319931
 790    0.00078865745611586
 791    -5.6391658255078e-05
 792    -1.323901291134e-05
 793    -1.6027665853879e-05
 794    -2.471216150641e-06
 795    0.00053936942782469
 796    -8.1612909927488e-06
 797    4.7594273336216e-05
 798    1.1368708932154e-06
 799    -0.00052830503449208
 800    0.0016023728779591
 801    0.0038356707649815
 802    0.00048660784634923
 803    -0.00017686515420375
 804    0.00094532358421095
 805    -0.00051997055750243
 806    -0.0023621117555688
 807    -0.00067721288109552
 808    -6.5340595551247e-05
 809    -1.1951440596245e-05
 810    -0.000101136913324
 811    9.6947395428585e-05
 812    -6.2047577787648e-05
 813    0.00030700566484743
 814    0.0013792974842695
 815    -0.00059894074189176
 816    -0.00043349313419762
 817    0.00016586301534245
 818    -0.00095844424003459
 819    -0.00048716684339498
 820    -0.00091322046204935
 821    0.0010478527360803
 822    0.00016964246588515
 823    -5.8424009859948e-05
 824    1.962408405499e-05
 825    2.8413633034038e-05
 826    6.4150047833584e-05
 827    0.00058264005529388
 828    -0.00017431579608085
 829    -0.00016441825199077
 830    -0.00012611069285663
 831    -7.7133116140993e-05
 832    0.0031455589868374
 833    -0.001007339047341
 834    0.00050852037361632
 835    0.00042700801971267
 836    0.00024824245986009
 837    0.0022130955022294
 838    0.0033796418641392
 839    0.00027019585009832
 840    0.00011969824488204
 841    0.00045718755416418
 842    0.00048498490755437
 843    -0.0017819445776484
 844    -1.0145903496724e-05
 845    0.00013338496295593
 846    0.00022093625941407
 847    0.0016192942415815
 848    -0.0043526897684945
 849    0.00011448143471141
 850    -9.3777494092102e-05
 851    6.2270033216517e-07
 852    -0.00050221641219401
 853    -0.0015602472287739
 854    0.00015159375122359
 855    0.00015248643152089
 856    -6.96513853067e-05
 857    -0.0049491533214657
 858     0.010931041720888
 859     0.040028922067444
 860    0.0088767047257157
 861      0.00079148798917
 862     0.008901186371148
 863     0.011249895909225
 864    0.0043110461605114
 865    0.0073603326476681
 866    0.00051308779762338
 867    0.00059759096675227
 868    -3.2740548954438e-05
 869    0.00031101149464133
 870    -0.00021105926485292
 871    0.00076519833641841
 872    0.0046189988583344
 873    -0.011519919860794
 874    0.00053339117760935
 875    -0.0015123437026119
 876    -0.0003021416260973
 877    -0.00051322077851142
 878    0.00089677534690092
 879    0.0046038492505427
 880    -1.8257507404029e-05
 881    -0.00027782363526248
 882    -0.00013294228622566
 883    3.4480279923675e-05
 884    7.0582416773009e-05
 885    0.0053609735651488
 886     0.003408133432103
 887    0.00062352094124459
 888    -1.9065631451271e-05
 889    0.00081817921771318
 890     0.003760725763914
 891    -0.0034074533462919
 892    -0.00042426198622266
 893    0.00026958106326918
 894    -0.00023428574610153
 895    0.0057059671727398
 896    0.0021639417172293
 897    0.00050293107946632
 898    -0.00020756441526292
 899    9.9322777245906e-05
 900    0.0015943164267423
 901    -0.004926867239388
 902    0.00054209080526368
 903    0.00010091174598652
 904    0.00012079330528729
 905     0.015178604358782
 906    -0.032304976704621
 907    -0.00024093407771191
 908    0.0012488738868947
 909    0.00012082962192543
 910    0.0024005508785142
 911    -0.014175290055355
 912    0.00010199842940436
 913    -0.00024928117645426
 914    -0.00021966793847011
 915    -0.0010134056883979
 916    0.0048888231712848
 917     0.017430483402508
 918    0.0010825208848457
 919    -0.00023346694798903
 920    -0.0016461426233164
 921    -0.0002718109129588
 922    0.0012818849622984
 923    -0.0032568327391053
 924    2.062624847237e-06
 925    -0.00019659246761152
 926    2.4957402953727e-06
 927    3.3428384270007e-05
 928    8.0709743800208e-05
 929    0.0033977598101994
 930     0.010494491296178
 931      0.01221816660789
 932    -0.0073639282692248
 933    0.0034988344188576
 934    0.0076981467806055
 935     0.019272634527506
 936    -0.0019785764126323
 937    -0.014887625449463
 938    -5.6506532199073e-05
 939    -0.00019482518937125
 940    0.00049560894463386
 941    -1.1584950761038e-05
 942    -0.00058626543328892
 943     0.010454866581563
 944    -0.0034113779454667
 945    0.00062629399433718
 946    0.00035618414116266
 947    -0.0012025784807105
 948    0.0073118169671156
 949    0.0055728134693433
 950    0.0015170341232494
 951    0.0010871552244494
 952    -0.000261948943407
 953     0.012673667416704
 954    -0.028852159688633
 955    0.0020810007270832
 956    0.00067971351612945
 957    -0.0014732013855541
 958    0.00067427856046954
 959    -0.0031580541960105
 960    0.00013032211815121
 961    0.00024236326690907
 962    6.2185594209954e-05
 963    0.0012169198738183
 964    -0.0039280595299288
 965    0.00033915111859215
 966    -0.00012077220635616
 967    6.160903914618e-05
 968    0.00098823664712444
 969    -0.0057347714023339
 970    9.3092135558332e-05
 971    -0.00010373125114515
 972    -0.00031955626908686
 973    0.00027631568733617
 974    -0.00099915925433949
 975    -0.0010518976298599
 976    -0.001107536114686
 977    0.00045741804853391
 978    -0.00018577395193252
 979    0.0004694552323403
 980    -0.0027077374366854
 981    -9.946906827033e-05
 982    5.1555063455517e-05
 983    6.4463311243511e-05
 984    -7.7632689888919e-05
 985    3.6584486978895e-05
 986    4.5664839719001e-05
 987    -0.00073719394622378
 988    -0.0023187274513687
 989    -9.3139909445715e-05
 990    0.0018595194842252
 991    0.0010180684114189
 992    0.0012881575276963
 993    -0.0032398870048457
 994    -0.00049187384699421
 995    -0.0015287675991647
 996    -1.471495257242e-05
 997    -0.0001213350608055
 998    2.9256123585734e-06
 999    -2.8451155304896e-05
 1000    -0.00017078506930382
 1001    -0.0014217900191843
 1002    -0.0026201711547905
 1003    7.8276280645292e-05
 1004    -6.5700236402054e-05
 1005    -0.00010473680586336
 1006    -0.0019083748873864
 1007    0.0042172912134635
 1008    -7.3226596767161e-05
 1009    0.00030697613343718
 1010    1.6368258626766e-05
 1011    -0.0013048095453019
 1012    0.00083118205663816
 1013    -0.00017768112743719
 1014    0.00012415372086211
 1015    4.3836752324714e-05
 1016    -0.0028364892686753
 1017    -0.0016797897999807
 1018    -3.7075941213564e-05
 1019    -4.9589185977989e-05
 1020    -0.00037185060695037
 1021    -0.00048528161373694
 1022    0.0032491787448746
 1023    -9.8078355990141e-05
 1024    -9.7651352631868e-05
 1025    0.00022317055692068
 1026    -0.00019333592517735
 1027    0.00028710581113247
 1028    -0.00011655270758285
 1029    0.00011893047471023
 1030    4.2710427024592e-05
 1031    0.0026706960403563
 1032    -0.0078707298532475
 1033     -0.01803414120441
 1034    -0.004686000725097
 1035    -0.0028858451548509
 1036    -0.0011553351540268
 1037    0.0033248970147981
 1038    -0.0054972262870652
 1039     0.001223016609772
 1040    0.00039152375689829
 1041    0.00025526542253709
 1042    -3.6942765857799e-05
 1043    -3.783439635496e-05
 1044    0.00044084601383928
 1045    -0.0018639414513041
 1046    -0.0041494285093217
 1047    -0.011539230148526
 1048    0.0029943806186336
 1049    0.0024706859091852
 1050    0.0051046581400804
 1051    -0.0041606642639146
 1052    -0.0020504276618342
 1053    -0.012929084983056
 1054    -0.00042270177802978
 1055    -0.00027090306703776
 1056    -1.8666338303214e-05
 1057    0.0001193317519656
 1058    -0.00027650573533106
 1059    -0.00084121469005752
 1060    -0.00074202890967871
 1061    -0.00044210913707449
 1062    0.00030019340641706
 1063    7.0632849738234e-05
 1064    -0.00033201682891526
 1065    0.0012299301509223
 1066    0.00027747127027911
 1067    -7.4439499421488e-05
 1068    0.00028666876887901
 1069    -0.0031768920321261
 1070     0.024750422153488
 1071    1.4275763813782e-05
 1072    0.00040268309058363
 1073    -0.00061092846890192
 1074    -0.0010832196610224
 1075    0.0078369450648849
 1076    -0.00058037241806934
 1077    0.00023253948403637
 1078    8.4827668785347e-05
 1079    -0.011993773845036
 1080    0.0076500635670116
 1081    -7.3139892648809e-06
 1082    0.00045816706832901
 1083    -0.00078990654124236
 1084    -0.0068683831138667
 1085     0.011846958285906
 1086    0.0002472397889682
 1087    -3.5590963651382e-05
 1088    0.00031451076370381
 1089    -0.00048648823581222
 1090    0.0012785507099735
 1091    -0.002619893897579
 1092    0.0022861828625287
 1093    0.0009428140292198
 1094    -0.0010155439249231
 1095    0.0018639727602554
 1096    -0.0011444700007682
 1097    -0.0022997820913836
 1098    0.00038201628781774
 1099    -0.00022293657270988
 1100    -0.00017247842500765
 1101    -0.00011592246871305
 1102    0.00011734800439716
 1103    -0.0023672045088801
 1104    -0.007695621844166
 1105    -0.00021070821006708
 1106     0.004479063802072
 1107     0.003687628489769
 1108    -0.0040436938562572
 1109    -0.0038944700724443
 1110    -0.015072027675805
 1111    -0.0041548493209568
 1112    0.00043202152939225
 1113    0.00022320591782949
 1114    -5.8507780666929e-05
 1115    7.4047005902326e-05
 1116    -0.00038964249449467
 1117    -0.012944681988562
 1118    -0.021870084461224
 1119    -0.00078734614364676
 1120    -0.00089911335478577
 1121    0.00050071558400895
 1122    -0.0033337223333729
 1123    0.0046182548253867
 1124    1.0602822880672e-05
 1125    0.00053253393248804
 1126    -0.00017740608327826
 1127    -0.0044125581316125
 1128     0.021018493123878
 1129    -0.00025054987743954
 1130    -0.00012903787693199
 1131    9.7862734041889e-06
 1132    -0.0028581314293691
 1133    0.0018392809899256
 1134    -0.00014656845214511
 1135    -0.00012030632200178
 1136    0.00014262464889143
 1137    0.00039004560111137
 1138    0.00035102454130999
 1139    1.8731429727655e-05
 1140    -8.2723901958597e-05
 1141    0.00023947133095438
 1142    -0.00083114477886979
 1143    0.0045255518858507
 1144    -0.00038392222927285
 1145    0.00031012212629135
 1146    -0.00032461365626798
 1147    -0.00019673278495148
 1148    0.00085012615936371
 1149    0.0030630329061297
 1150    -0.00031402994627889
 1151    0.00010538201283326
 1152    0.00032743487840659
 1153    -0.00023772609642886
 1154    9.7940377465971e-05
 1155    0.00029745553700246
 1156    1.259950506415e-06
 1157    7.2594041153661e-06
 1158    3.6884984559524e-05
 1159    -2.4213933748576e-06
 1160    -3.4807295884975e-05
 1161    0.00034604327483404
 1162    0.0008239933659758
 1163    0.0036399109288369
 1164    0.0011669244728977
 1165    0.0010432099670311
 1166    -0.0013347869597178
 1167    -0.0033033470014327
 1168    -0.00051246320438121
 1169    0.0036744971246131
 1170    3.9347401446332e-05
 1171    -6.8490787879141e-05
 1172    -9.4466441829095e-05
 1173    9.8073300892179e-05
 1174    0.00012034213619958
 1175    0.00092984971389536
 1176    0.0013250419887974
 1177    -0.00037598025046136
 1178    4.8534430338698e-05
 1179    -7.0713754234588e-05
 1180    0.0024150289123092
 1181    -0.0082670526960584
 1182    -0.00034862567480715
 1183    0.00019284238743669
 1184    0.0003953297634714
 1185    0.0010198328902622
 1186    0.00032751522718082
 1187    5.6032430611734e-05
 1188    3.7281120722654e-05
 1189    0.00036768006542008
 1190    0.00017776209697905
 1191    -0.00096855356561251
 1192    -8.3797993552204e-05
 1193    -2.3313558658011e-05
 1194    -2.7108152108538e-05
 1195    0.00017521649493403
 1196    -0.0011147966670755
 1197    2.8549081245895e-05
 1198    -3.0119636523975e-05
 1199    8.4828904017262e-05
 1200    -5.3430621926039e-05
 1201    -0.00021402483403245
 1202    -4.8349540549764e-05
 1203    4.5486070399434e-05
 1204    5.4684615365537e-05
 1205    -0.0032131434238395
 1206    0.0088594091668701
 1207     0.016007358632813
 1208    -0.0068499190586849
 1209    -0.0013593561765998
 1210     0.006837691044196
 1211    0.0021820478586533
 1212    -0.0054774153907697
 1213    0.0069959599041449
 1214    0.00055219440963644
 1215    -0.00028648258828667
 1216    -0.00021710612376367
 1217    -0.00018318181405558
 1218    0.0003180893328589
 1219    0.0010529695959854
 1220    0.0055185997254505
 1221    -0.0064253514379423
 1222    0.0048089254705826
 1223    0.00064385293520171
 1224    -0.0014919314334416
 1225    -0.0089179143095193
 1226    -0.0083000320483795
 1227     0.002231133126349
 1228    -0.00059616376062695
 1229    0.00035664319776699
 1230    0.00022240686147561
 1231    0.00069291741637729
 1232    8.1937060871836e-05
 1233     0.012585273582104
 1234     -0.01141648307908
 1235    -0.0019086866814031
 1236    0.0018457679543781
 1237    0.00031273441049007
 1238     0.007999304052113
 1239     0.019044569465136
 1240    -0.00059840275532073
 1241    -0.00012679201422366
 1242    0.0010242074149227
 1243    0.0047490573022155
 1244    0.0049573531987135
 1245    -0.00036495112682507
 1246    -9.6579096443789e-05
 1247    0.00035337080764383
 1248     0.010284945800612
 1249    -0.014219361710892
 1250    -0.00031075062889556
 1251    0.0008664909872483
 1252    -0.00028147748667636
 1253    -0.002740708673722
 1254    -0.0085864848698234
 1255    0.00025466298999742
 1256    0.00015369952720259
 1257    8.1028997487889e-05
 1258    0.0026976035951567
 1259    -0.0074323387160077
 1260    -0.00035928075263096
 1261    -3.3706190054598e-05
 1262    -4.5409242285404e-05
 1263    0.00037956124841505
 1264    -0.0018536861713499
 1265    -0.0071620291411769
 1266    -0.0011840640576176
 1267    0.0020746536076637
 1268    0.0018582616691057
 1269    -0.001969095239384
 1270    -0.0078418967210367
 1271    0.0016064449879641
 1272    -0.00011003249367785
 1273    1.1591145943706e-05
 1274    0.00024761372215574
 1275    0.00024299870388806
 1276    -0.00011790331622449
 1277    -0.003368765058254
 1278    -0.011082776590402
 1279    -0.0016203191841341
 1280    -0.0055118230315787
 1281    0.0027622096812762
 1282    0.0025561382079101
 1283     0.004660277290707
 1284    -0.014012771344544
 1285    0.0048988261156726
 1286    -2.4658037314614e-06
 1287    -0.00056420440314766
 1288    0.00010762130601862
 1289    0.0002602564824619
 1290    -0.00020306693577138
 1291    -0.0051230655495485
 1292     0.017543032029005
 1293    -1.2928722956707e-05
 1294    0.00048450574670509
 1295    0.00071464644415408
 1296    -0.019723493040376
 1297    -0.022888926690886
 1298    0.00080791472104845
 1299    -0.0002658181120317
 1300     -0.00108510555719
 1301    -0.0052940694902636
 1302      0.01698094249383
 1303    -0.00075737226063334
 1304    -0.00036130614293737
 1305    3.2282096281149e-05
 1306    -0.0060462061609025
 1307    -0.0017181928959141
 1308    0.00028994621875144
 1309    -4.5006614965489e-05
 1310    -0.0003062668801723
 1311    -0.0024200953229266
 1312    0.0049883400388128
 1313    -0.00020053780134133
 1314    0.00049131524979555
 1315     0.000145967403725
 1316     0.001490914898515
 1317    0.0063816370118015
 1318    -0.00013372808967682
 1319    -0.00026504719930838
 1320    0.00023019220046587
 Sym= A
 Ene=               0
 Spin= Alpha
 Occup=    0.00000
   1     0.018436194966041
   2     0.004278409343138
   3    -0.022854437604299
   4    -0.053686207513447
   5    0.0075270496680664
   6    -0.031716437946074
   7      0.14815932902193
   8    0.0079514793569298
   9    -0.034020237166807
  10      0.15650032774374
  11    -0.019965185314643
  12     0.099558554481967
  13       -0.472738078674
  14    -0.057118465715739
  15      0.15476907294463
  16     -0.68550751263445
  17    0.0011755148430895
  18    -0.011662081275135
  19    -0.0095445368098049
  20    0.0015973095292544
  21    0.0028394299564648
  22    -0.0046977035121925
  23    -0.001610835746229
  24    -0.00087533132243479
  25    -0.00060882439773262
  26    0.00036430404609875
  27    0.0072706923278497
  28     0.015566885961294
  29    -0.039571483535114
  30    -0.013313764014368
  31     0.017018930805267
  32    0.0041226928275186
  33    -0.014498737842406
  34     0.023228449201323
  35    0.0052312778237037
  36    -0.018875818918363
  37    -0.065174310617822
  38    -0.015169432831158
  39     0.057130275726985
  40    -0.084393725465924
  41    -0.017801251764209
  42     0.050904501288514
  43    -0.00011916080342928
  44    -0.0025152122082737
  45    -0.00019025066430158
  46    -0.0011660028441169
  47    0.00056324662987776
  48    0.0010964123914238
  49    -0.0058797472940235
  50    -0.0004615129268046
  51    -0.0014066626013507
  52    0.0016171481928049
  53    0.0092105627824475
  54     0.014371755680714
  55    -0.033831768206569
  56    -0.021314531593977
  57    -0.0022394632203619
  58     -0.00596742119672
  59    -0.015149496408044
  60    -0.0024489056283758
  61    -0.0083957649376089
  62    -0.019346997269387
  63    0.0083732796016001
  64     0.020385653138756
  65     0.061074710231278
  66    0.0054303282207865
  67     0.030461717846376
  68     0.048406900629336
  69    -0.0015377312488693
  70    -0.0010228096448637
  71    -0.0038273178384519
  72    -6.678902792556e-05
  73    -0.00014232135212757
  74    0.00094115384190551
  75    -0.00028524278132067
  76    -0.0086731243729745
  77     0.001527846592364
  78     -0.00163042438314
  79    -0.012598397630295
  80    -0.027956772904791
  81     0.071128297060774
  82     0.034376942057715
  83    -0.0043535976206738
  84     0.003148928556426
  85     0.091294710913848
  86    -0.0063034522552133
  87    0.0038341021172389
  88      0.12327740679422
  89     0.018226249735467
  90    -0.011808541740684
  91     -0.34800939792229
  92     0.020822510451161
  93    -0.010928467225734
  94     -0.40762418966345
  95    0.0056187890880866
  96    0.0018077115575627
  97    0.0040685385715151
  98    -0.0010353495759817
  99    -0.00019812566104877
 100    0.0010708986346959
 101    0.0091200318068747
 102    0.0081634074643553
 103    0.00068720268116274
 104    -0.0010870239969131
 105    0.0043169613408263
 106    0.0048707945221859
 107     -0.01471865353098
 108    -0.0043490446125264
 109    -0.00054718692534434
 110    0.0061917054588363
 111    -0.025624429317351
 112    -7.3430664456573e-05
 113    0.0077919600089041
 114    -0.032506392063692
 115    0.0016695451152233
 116    -0.022689712217481
 117     0.095320086104578
 118    -0.0032858181128467
 119    -0.021535040471937
 120     0.090593466683977
 121    -0.0026986142998694
 122    0.0065094543627263
 123    -0.00018054796407195
 124    0.0010648192014515
 125    -0.0016223221994009
 126    0.0028183599878834
 127     0.011904959775171
 128    -0.00069443051095189
 129    -0.0020160761611924
 130    -0.0024741560550551
 131    -0.013260134354864
 132     -0.03035962175979
 133     0.069999984303098
 134     0.055698008096384
 135    0.0031592021533984
 136    -0.018784157114893
 137    -0.019401078955733
 138    0.0047965159588033
 139    -0.025551762313983
 140    -0.024821458561378
 141    -0.012067690874243
 142      0.07395176158924
 143     0.071472916712355
 144    -0.016275204303824
 145     0.083863656625781
 146     0.070641881509369
 147    -0.0035360974977222
 148    -0.0012413176861081
 149    0.0041167172345577
 150    -0.004082201053242
 151    -0.0017632403353201
 152    -0.0034355112344421
 153    -0.00082832721182271
 154     0.010303641108285
 155    -0.0043469625245882
 156    7.864348890079e-05
 157      0.05249938130904
 158      0.10577037973413
 159     -0.25264022180074
 160     -0.15491924276242
 161    -0.016969190829633
 162    -0.006873276583547
 163     0.056649486715238
 164    -0.021149027799102
 165    -0.009409878378702
 166     0.078455046486238
 167     0.063686979119774
 168     0.025012376321845
 169      -0.2204151255455
 170       0.0543706377591
 171     0.034208903644864
 172     -0.24104613366937
 173    -0.0079845163546252
 174    0.0052410700649482
 175    0.0012131847281113
 176    -0.0010375356738329
 177    -0.0010137237481893
 178    -0.018248451628819
 179    0.0044547137749175
 180     0.005039390529591
 181    0.00076567488827471
 182    0.00098080803953806
 183    -0.0062259451925196
 184    -0.0013591673785196
 185    0.0087969821625893
 186    0.0094190884529059
 187     0.052180577264711
 188    0.0029690444697559
 189      0.10748903769746
 190     0.055279386390124
 191    0.0032414820839202
 192      0.11372872671601
 193      -0.1705211774621
 194    -0.010614758020133
 195     -0.34946828333654
 196     -0.25344767189191
 197    -0.013424537105967
 198     -0.51846646259037
 199    0.0038504400273747
 200    -0.001587282913654
 201    -0.0089721661523031
 202    -0.0052124600572686
 203    -0.0040187576348278
 204    0.00020572287452799
 205    -0.00019787353597418
 206    0.00035034388274448
 207    0.0024100297031824
 208    -0.00086018668941794
 209       0.0075695839128
 210     0.019535173629376
 211    -0.048215309432887
 212    -0.028926776561945
 213     0.045722148871706
 214    -0.00047307779957701
 215    -0.0095396029454162
 216     0.061080825288803
 217    -0.00073535427795662
 218    -0.012981615728292
 219     -0.17293814515862
 220    0.00092036235591935
 221     0.039676903648301
 222     -0.19898043572585
 223    0.0059100439883147
 224     0.032830430641538
 225    0.0035964702275999
 226    -0.0029032907882765
 227    -0.00022601178644567
 228    -0.0033443134813702
 229    0.00041174246607759
 230    0.00066737351972481
 231    -0.011102604954631
 232    -0.00014147711660228
 233    -0.0014100431463096
 234    0.0024084664022736
 235    -0.0016699101652911
 236    -0.0013323415957233
 237    0.0026415814374793
 238    0.0029680829399472
 239    -0.0042889453860076
 240    0.00081977174471774
 241    -0.0087529513981064
 242    -0.0059953015954641
 243    0.0011136293682044
 244    -0.011591391549809
 245     0.017886778107937
 246    -0.0015156749213302
 247     0.036921672820352
 248     0.018183562908496
 249    -0.0051221806909844
 250     0.031176193870198
 251    0.0018954346473328
 252    -5.9797707160342e-05
 253    -0.001643289857392
 254    -0.0006293295802707
 255    -0.00097682729463664
 256    -0.00087814397676049
 257    -0.00014865670264361
 258    -0.0082604148318362
 259    0.00061636238267662
 260    -0.0039399934854167
 261    -0.039358728103284
 262    -0.086899458404052
 263      0.20219502846379
 264      0.13639252569283
 265    -0.0027278380411874
 266    0.0050663353713342
 267     0.044424326131873
 268    -0.0042242721870251
 269    0.0062969943616045
 270     0.061517006684954
 271     0.011062403352832
 272    -0.019704573006239
 273     -0.17893413281819
 274     0.013063920366854
 275    -0.015229519756551
 276     -0.18825956859141
 277    0.0079320410779284
 278    -0.00089791423907841
 279    0.0021393538918388
 280    -0.00040271720784318
 281    0.00032609066975836
 282     0.016131244647356
 283    -0.0015715158672529
 284    0.00079559640357035
 285    -0.00022316456609505
 286    -0.0013360425118584
 287      0.01928165102918
 288     0.044444988991847
 289     -0.10034770132876
 290     -0.07620431780087
 291     0.023835146746218
 292    -0.0028525595335518
 293    -0.011180044638831
 294     0.033019118319992
 295    -0.0035083081267268
 296    -0.015099552137345
 297    -0.096265736603028
 298     0.010750943433356
 299     0.042666537030079
 300     -0.10303654477746
 301     0.010279217244755
 302      0.04698453532947
 303     0.003696009519967
 304    0.0025905428786326
 305    -0.00028790176790677
 306    -0.0040135628958365
 307    0.0012118289851767
 308    0.0036614553328579
 309    0.0074708244288081
 310    -0.00065129993950346
 311    -0.0074879301128249
 312    0.00083620095276283
 313    0.0029083895712082
 314    0.0081305292601918
 315    -0.018553160230067
 316    -0.013988894851295
 317    -0.008013937340846
 318    0.0061213951659112
 319      -0.0133181097343
 320    -0.010439311957827
 321    0.0084943883731728
 322    -0.017630193179026
 323     0.030651249365555
 324    -0.024364706963232
 325     0.049991627399088
 326     0.029807957263426
 327    -0.026756400829447
 328      0.05286165476113
 329    0.0029738142767878
 330    0.00015711076036844
 331     0.002619433296261
 332    0.00073414517604141
 333    0.0018125258245049
 334    0.0013753836981101
 335    -0.001103747292288
 336    0.0085494439360796
 337    0.0013999669950234
 338    0.0050436478765376
 339    -0.008550779461182
 340    -0.0015692085071203
 341     0.011581884346187
 342     0.020477614835542
 343     0.029643822316604
 344    -0.013101795303792
 345     0.010699435580418
 346     0.031243015264768
 347     -0.01388437971953
 348     0.011306002485921
 349    -0.094319747194921
 350     0.041311629120853
 351    -0.033126262338478
 352      -0.1400259612563
 353     0.061241078104234
 354    -0.050568010530534
 355    -0.0043629913178187
 356    -0.00018980554742396
 357    0.00049543242361335
 358    0.0036347865523607
 359    -0.00074619020678991
 360    0.0017696782226633
 361    0.00027805206663887
 362    -0.00014913871012421
 363    -0.0013370738290669
 364    0.00015334368632948
 365    -0.0094559523224695
 366    -0.018578331659282
 367     0.042873986803459
 368     0.030768659036248
 369     0.010569720458402
 370    -0.00020197217753869
 371    -0.0012705614938571
 372     0.014686757513187
 373    -0.00021849423604481
 374    -0.001329395092416
 375    -0.040840825914552
 376    0.0011972914652705
 377    0.0044403568613928
 378    -0.046494574780697
 379    -0.0014078374881308
 380    0.0022602095678582
 381    -0.00089535145480271
 382    -8.3950669430363e-05
 383    -4.4481268064792e-05
 384    0.0016470650485888
 385    -0.00034114388197384
 386    -0.0015410947565082
 387    -0.00053582098766567
 388    0.00032642416102934
 389    0.0025593566979859
 390    0.00069897045969437
 391    0.0043597247901609
 392     0.009136959145729
 393    -0.021087561363708
 394    -0.016424173331537
 395    -0.004288749479922
 396    -0.0048467219546524
 397    -0.001765157376614
 398    -0.0055286830227501
 399    -0.0066510650074235
 400    -0.0023384667469135
 401     0.016544779161247
 402     0.018986960285325
 403    0.0066178784789351
 404     0.015140372829218
 405      0.02253589206962
 406    0.0065499140611958
 407    0.00037758288809596
 408    2.2274144705938e-05
 409    -0.00056774622058013
 410    0.0012964361010223
 411    -0.0010696107599016
 412    0.00092615917391014
 413    -0.00018146541618141
 414    -0.0007017472099002
 415    0.00057430329508507
 416    -0.0024361738269324
 417    -0.0030314300999012
 418    -0.0068629090343192
 419     0.016964628261288
 420    0.0032422929548881
 421     -0.01160800880234
 422    0.0029309081691499
 423    0.0031555504724152
 424     -0.01521535516988
 425    0.0037011432490562
 426    0.0042296069317717
 427     0.045948551237709
 428    -0.011541311121166
 429    -0.012974975504817
 430     0.041798211106898
 431    -0.0090259734568868
 432    -0.015478608582519
 433    -0.00027112521469053
 434    0.00085421928131361
 435    0.00014901456460563
 436    0.00047361593452604
 437    0.00012569910878911
 438    0.0010421117372677
 439    0.0019198635197474
 440    0.0004552726583354
 441    -0.00025204998583027
 442    -0.00074712753865966
 443    -0.0034963313062951
 444    -0.007011038874172
 445     0.016814941117209
 446    0.0099278594700211
 447    -0.0035041724401658
 448    -0.0036327039754186
 449    -0.0014082355648336
 450    -0.0046328406663278
 451    -0.0050447216029492
 452    -0.0018040814258507
 453     0.013149746509896
 454     0.014351540668335
 455    0.0053216153382347
 456     0.014143221263648
 457     0.014825284196356
 458    0.0040728012815541
 459    -0.00032693840653376
 460    0.00014291421866384
 461    0.00029778190328008
 462    -0.00039251945752078
 463    0.00084054893090843
 464    -0.00056165788268466
 465    -0.00035414413540677
 466    0.00065318338893082
 467    -0.00077105431424788
 468    0.0021473054360965
 469    0.0038356823087953
 470    0.0068850925093111
 471    -0.015518125343505
 472    -0.013549123554469
 473    -0.0044508532487288
 474    0.0018795021080145
 475    0.0035489197006955
 476    -0.0051297551204865
 477     0.002316712801016
 478    0.0049392414555103
 479     0.016163335570561
 480    -0.0070471311030262
 481     -0.01343934715627
 482     0.012182503124659
 483    -0.0061590174818832
 484     -0.01819525484477
 485    -0.00085496170362345
 486    0.00076094449275639
 487    -0.00061088221884298
 488    -3.4455956340571e-05
 489    0.00019846451477541
 490    -0.00076085479159229
 491    0.0020399778231859
 492    -0.00067661828098144
 493     0.000307440475906
 494    -0.00014835917669091
 495    -0.011028617218862
 496    -0.002499781544586
 497     0.014856272018203
 498     0.030154573184791
 499      0.07380756083708
 500    -0.0099975967449602
 501    -0.00096651236420722
 502     0.078134378931049
 503      -0.0105288535144
 504    -0.00097697146549939
 505     -0.23586326741321
 506     0.031452867532208
 507    0.0058882608790525
 508     -0.34115415781969
 509     0.045087966134013
 510    -0.0087455777440726
 511    0.00021308226189287
 512    0.0055917414761701
 513    -7.1425103149855e-05
 514    0.0039282778452281
 515    -0.0055333674332414
 516    -0.0010889390196554
 517    0.00034473497473299
 518    8.2931509725929e-05
 519    -0.0004310524522841
 520    3.6932771672068e-05
 521    -0.024450917382964
 522    -0.048932232708747
 523      0.11591978872658
 524     0.073304739619862
 525     0.026751261937689
 526    0.0070759187330447
 527    -0.005175570777667
 528     0.037118179773502
 529    0.0092751760012436
 530    -0.006360257131346
 531     -0.10344577751834
 532     -0.02591849818451
 533     0.019074874024734
 534     -0.11504921061261
 535    -0.028898846189854
 536     0.015787604900582
 537    -0.0017233115815501
 538    -0.002032505603567
 539    -0.00074995758491943
 540    0.0033317474035902
 541    0.0015426531178907
 542    -0.0049697127112781
 543    -1.7098292545206e-05
 544    0.00089994839869534
 545    0.0069410585398721
 546    0.0038507673713283
 547    0.0040439496363038
 548    0.0094762356129945
 549    -0.022329919735266
 550    -0.016087638047628
 551    -0.0068545794280903
 552    -0.0057697949543063
 553    0.00063543427275314
 554    -0.0088946788989455
 555    -0.0077936631676101
 556    0.00099138112519702
 557     0.027615973370052
 558     0.023219401438144
 559    -0.0024111674728434
 560     0.022806378015987
 561     0.024991427147631
 562    -0.0035023986511249
 563    0.00047661593945537
 564    0.00028498803790891
 565    0.00045419633071173
 566    0.0021253280058199
 567    -0.0016313700191521
 568    0.00091346622940785
 569    9.7906296856715e-05
 570    -0.00011812426983354
 571     0.001069452631319
 572    -0.0042267414392961
 573    0.00092814525195543
 574    0.0044377132019093
 575    -0.0093386056174165
 576    -0.0071528440610355
 577    -0.0093483520639908
 578    0.00093165033762745
 579    -0.0052226311810731
 580    -0.012134667575575
 581    0.0012630003932202
 582    -0.0066772416993091
 583     0.034567822796841
 584    -0.0032304855655524
 585     0.019956748115709
 586     0.036544408077176
 587    -0.0044284043713664
 588     0.017742759611995
 589    -0.0021964804455159
 590    -0.002191021819053
 591    0.00010006063517058
 592    0.0010646041854426
 593    -0.00040166444860274
 594    -0.00031665622114044
 595    -0.005579810980325
 596    0.00037181825315246
 597    -0.00096405252014145
 598    -0.00038797985473894
 599    -0.0039798017211328
 600    -0.0074101475737892
 601     0.018987591229994
 602     0.006250599023888
 603    -0.011478366510918
 604     -0.00323751137136
 605    -0.00033925622100645
 606    -0.014981968483928
 607    -0.0045087536827164
 608    -0.00025085865649927
 609     0.042400472725511
 610     0.013044694249633
 611    0.00095384432445121
 612     0.044483643528386
 613     0.010649323278773
 614    0.00038256613765604
 615    -0.0001903218836267
 616    0.00019555089097956
 617    -5.5561391132553e-05
 618    0.00034212224393854
 619    0.0031130353094201
 620    -0.00060739994248963
 621    -5.8900949615941e-05
 622    0.00043637725183999
 623    -0.0016668267810565
 624    0.0054123489260562
 625    0.00019957735576619
 626    -0.0030889998385435
 627    -0.00083160004319217
 628    0.0022210001631799
 629    -0.00093716283624266
 630    -0.0016619618285091
 631    0.0041468725421403
 632    0.0059977490469178
 633    -0.0077506789249181
 634    -0.00017268906615709
 635    -0.0003486398541551
 636    -6.5876357084956e-05
 637    0.0001195827828855
 638    -0.00037305832950937
 639    -0.0010875434792149
 640    0.00012638124643263
 641    -0.027988522771289
 642    -0.0013885342521521
 643    0.0025504565194453
 644    0.0060453371541323
 645    -0.0043198374232652
 646    -0.020997031660757
 647    -0.0090563292514127
 648    -5.5883239666717e-05
 649    9.9028938242846e-05
 650    -0.00038696189765507
 651    -0.00025259997620865
 652    0.00047373848455961
 653    -0.0038134291193009
 654     0.012527607439721
 655    0.00031502620809429
 656    -0.00071304348314963
 657    -0.0010698673977179
 658     -0.00645350394059
 659    -0.0021409757757072
 660    -0.0013239786751913
 661    -0.00046538665388941
 662    -0.0006100670242263
 663     0.012975165622421
 664     0.027189628662288
 665    -0.00012714351094874
 666    -0.00087888489739239
 667    -0.0023706469544347
 668    0.0012732383213075
 669    0.0079320110373151
 670    0.00039880702633955
 671    0.00051011314460254
 672    -0.00011584302879573
 673    0.0037778258953289
 674    -0.0069303250528684
 675    0.00021989368975513
 676    0.00013808897893001
 677    -9.6046776775408e-05
 678    0.00028711570268446
 679    -0.0059239915165067
 680    -0.0004546658982716
 681    -0.00034227718523187
 682    -0.00016852196610104
 683    0.0014876744191721
 684    -0.0032802436744155
 685    -0.0092169501736868
 686    0.00027945173671218
 687    0.0036166709490876
 688    0.00028321938071327
 689    0.0021510516119604
 690    0.0033451768858827
 691     0.001582332103666
 692    -0.00017947464854766
 693    0.00054942367100921
 694    0.00059247488045299
 695    3.9464499658154e-05
 696    3.9608631400522e-05
 697    -7.3124233182887e-05
 698    0.00041402081622608
 699    -0.0056070334093079
 700    0.00018211206292592
 701    0.0013177392856945
 702    -0.00014000054039118
 703    0.0007030576802524
 704    -0.0021176424781655
 705    -0.0091048772710761
 706    -4.2098405349622e-05
 707    -0.000408571243473
 708    -0.00083578752662725
 709    0.00015584904408815
 710    2.9457982547349e-06
 711    -0.0016845859523074
 712    0.0026951768807856
 713    -0.00017506722726463
 714    0.00034241083696803
 715    -0.0025545248209273
 716    -0.0029418968606805
 717    -0.0020912681551523
 718    0.00063350090735192
 719    0.00055165066606722
 720    -0.00045501959419892
 721    0.0020932930407129
 722     0.007507902671947
 723    -0.00049311640899659
 724    -0.00098756342077017
 725    -0.00053714448008704
 726    0.00041065242771402
 727    0.0013621082967641
 728    0.0006309017725193
 729    -0.00042844403163484
 730    -9.0293155245734e-05
 731    0.0012721440085956
 732    0.0022619992198964
 733    -2.3843141569286e-05
 734    -2.2670838724561e-05
 735    -4.2224506718292e-06
 736    -0.0041595380009289
 737    0.0090302247178738
 738    -0.00061317291645321
 739    3.6942848381551e-07
 740    7.4688647767045e-05
 741    -0.00022277194497531
 742     0.001080949324034
 743    0.0049815674633073
 744    0.00029821113101172
 745    -8.7326504946222e-05
 746    0.00011358083972692
 747    0.00085056050679425
 748    -2.0764387199446e-05
 749    0.0012250422351919
 750    -9.4159816497224e-05
 751    -3.9112092612523e-05
 752    -4.8796016611646e-05
 753    7.3165106192797e-05
 754    -6.2921879423106e-05
 755    0.0011563400809943
 756    0.0027490853961471
 757    0.0076617256010787
 758    -0.0057986059517235
 759    0.0019602106539702
 760    -0.0039805899769103
 761    0.0082099039415957
 762    -0.0051631800354172
 763    0.0032342744030087
 764    -5.5863858270271e-05
 765    0.00020926039190041
 766    -0.00026636084302185
 767     5.05606494657e-05
 768    -0.00014046600433734
 769    -0.00082060322297935
 770    0.0065443037343162
 771    -0.00022407462947131
 772    -0.00025387175325173
 773    -7.7213080381505e-05
 774    0.0013108824502741
 775    -0.00083337563559985
 776    0.00054051154165059
 777    -9.4751881025331e-05
 778    3.1595491951461e-06
 779    0.0058705882212442
 780    -0.017092826058682
 781    0.00065784063864123
 782    -0.00060501662306294
 783    -0.00024110002605833
 784    0.00030264394880445
 785    0.0013159445867995
 786    0.00013446729019521
 787    -0.00017046217201522
 788    -1.7440691208668e-05
 789    0.00026791827980948
 790    -0.0039350109222404
 791    0.00019719304526949
 792    0.00016139215969365
 793    8.5439413649662e-05
 794    0.00016961953824367
 795    -0.0016644248874141
 796    -7.2139792562343e-05
 797    -0.00011528707166652
 798    5.0024890250486e-05
 799    -0.00038312069534081
 800    0.0010423782102591
 801    -0.0083176448469996
 802    -0.0013089778319255
 803    -0.001194706096822
 804    0.0026563361942154
 805    -0.0017433162625826
 806    -0.00073299505054729
 807    0.0049859394837689
 808    -0.00015815040214159
 809    9.6583500032303e-05
 810    0.00017877654894768
 811    -0.00010212533461531
 812    -0.00012653027059263
 813    -0.0026005753523793
 814    -0.0068362870073986
 815    -0.012275356945856
 816    -0.0050542739438019
 817    0.0057493002084671
 818    -0.0010182843328359
 819    0.0095058553010772
 820    -0.0069688559476681
 821    -0.0002936017593563
 822    0.0002160233060969
 823    -0.00018815932643268
 824    0.00012509151258702
 825    -1.5501948647788e-05
 826    0.00088900294577082
 827    -0.012508450825874
 828      0.02375154731324
 829    0.0018649428618086
 830    -0.00093400368830907
 831    -0.00096450672139497
 832    -0.0010232132340098
 833    -0.0049860554459205
 834    -0.00015721649983846
 835    -0.00070378671538046
 836    0.00019631710868258
 837    -0.0038414176854129
 838    0.0020860541232706
 839    -0.00026458295452235
 840    0.00026362996409924
 841    -0.00020229535740835
 842    -0.0010134882379205
 843     0.004781081423455
 844    0.00042416231799281
 845    -2.4801850050399e-05
 846    -0.00047286473248078
 847    0.00042985066520199
 848    -0.00038813484227398
 849    5.4618948720966e-05
 850    -0.0001493037120571
 851    -0.0001573429808421
 852    -0.0024506108086092
 853    0.0063738751656259
 854    -0.00014215468866451
 855    1.1305477699669e-06
 856    0.00039786840536153
 857    -0.00098540642564785
 858    0.0033958530567422
 859    0.0066746727137692
 860    0.00040375908510758
 861    0.00050873351265741
 862    -0.00059038899512968
 863    0.0025509295291405
 864    -0.0020387883493604
 865    0.0086221613694944
 866    -6.6561195758981e-05
 867    0.00013349090733602
 868    0.00020208330064588
 869    2.6184225803991e-05
 870    0.00017233425447488
 871    0.00018990935381524
 872    0.0017338534888148
 873    -0.0026060557780985
 874    0.0005764260673516
 875    -0.001094133286954
 876    0.0004355825862704
 877    0.0016604749376169
 878    0.0043361031927301
 879    0.0026352015875129
 880    0.00016049600187716
 881    0.00082094856535155
 882    -0.00021501581318943
 883    0.00016071302805735
 884    -0.00026637218360882
 885      0.01242948982187
 886    0.0099544782659641
 887    -0.0017813909921351
 888     0.001456762182004
 889    -0.0010048887998808
 890    -0.0031903172123103
 891    -0.003349538249836
 892    0.00088419633953993
 893    -0.00094124411517347
 894    0.00022261085384675
 895    -0.0023648861330895
 896    -0.0033386493217125
 897    -0.00040247211492282
 898    -0.00024230863023983
 899    -0.00046880262326106
 900    0.00057895414147932
 901    -0.0036459275571475
 902    -0.0002525567091943
 903    -0.00015451684981994
 904    -0.00042368657602675
 905    -0.003012326250242
 906    -0.0068652419191774
 907    0.00033338333315083
 908    -5.8378655100424e-05
 909    0.00010727448990474
 910    0.0025287007233002
 911    0.00093717578552559
 912    -0.00031068495007304
 913    0.00018935670000687
 914    -5.018914794684e-05
 915    -0.0015798085814378
 916    0.0016210178209005
 917     0.021269068075662
 918    -0.0048488144682479
 919    0.0052740129088892
 920    0.0020307282884921
 921    -0.010783452582565
 922    0.0074010299213976
 923    -0.0061607428714496
 924    -1.3323715368277e-06
 925    -0.00023002005215524
 926    0.00051637213954865
 927    -4.3127494000405e-06
 928    -0.00027824326751427
 929    0.0012767297862462
 930    0.0054370835677222
 931    -0.010795001706924
 932    0.0032530707846395
 933    -0.0015631994308344
 934    0.00092228537238937
 935    0.00074198462975701
 936    -0.0021556503187371
 937    0.0085485233231728
 938    0.0001165991416251
 939    0.0003348480298333
 940    -0.00020917331576823
 941    2.1596663479568e-05
 942    -7.096461553108e-05
 943     0.012330360982855
 944      0.01240927896646
 945    -0.0016941339801857
 946    -7.5371202287971e-05
 947    0.0006659256204485
 948    -0.0018005955245961
 949    -0.0065051638840498
 950    0.00024777126774375
 951    -0.00044367047595388
 952    0.00031419158779481
 953    -0.00099591595014548
 954    0.0012799511443673
 955    -0.00058138238340864
 956    0.00020663043376152
 957    0.00048655854824964
 958    0.0083908788560502
 959    -0.015238267001398
 960    -0.00022313416858287
 961    0.00028273232974902
 962    -0.00016383757457177
 963    0.00070238625594233
 964    0.0041683001469055
 965    -0.00019110159402312
 966    0.00051850901979534
 967    -0.00026733560242897
 968    0.0010704155630656
 969    -0.013586639941256
 970    -0.00028822222730059
 971    -0.0006278841127852
 972    0.00014162715554332
 973    0.0024034361825651
 974     -0.00666915095277
 975     -0.01276658604885
 976     0.004619101777541
 977    0.0042091458473111
 978    0.0025181669880555
 979    0.0024515715469889
 980    -0.0033081588351384
 981    0.0077539550222481
 982    -1.509814685966e-05
 983    -0.0001335508157026
 984    7.057335241314e-05
 985    -6.1057832770326e-05
 986    9.4763785091986e-05
 987    -0.0017359437670406
 988    -0.0052609079483721
 989    -0.0055715385601665
 990    -0.0026616937107563
 991    -0.0030346807236959
 992    0.00097844148080131
 993    0.0012778829766426
 994    0.0017798428332089
 995    -0.00027399743969766
 996    0.0001950001225846
 997    8.8442584715957e-05
 998    0.00018700600091397
 999    0.00019730153109189
 1000    -0.00019297148320069
 1001    -0.010927291757572
 1002    0.0036622547904985
 1003    0.00079178882639018
 1004    0.00054198601078741
 1005    -0.00047518042096756
 1006    -0.0011998025005811
 1007    -0.0010902738546768
 1008    -0.00011046463950647
 1009    0.00030432957800669
 1010    4.5642749050974e-05
 1011    -0.0026192667977356
 1012    0.0074633219211975
 1013    -1.3846839207328e-05
 1014    -0.00049303810413564
 1015    6.8367564873682e-05
 1016    -0.0051610675346777
 1017    0.0028038654485392
 1018    0.00011516145283686
 1019    0.0001805886629842
 1020    -0.00062132621631782
 1021    0.0033811393879468
 1022    0.0063296046769288
 1023    3.6606976419333e-05
 1024    -0.00016476642301557
 1025    0.00014735532858573
 1026    -0.006117136580786
 1027     0.012294940922177
 1028    -0.00040587205658922
 1029    -0.00012487594557513
 1030    4.7910919540034e-05
 1031    0.00089264729677183
 1032    -0.0027270466608887
 1033    -0.0059619962117799
 1034    0.00079956484191481
 1035    0.00018240506918958
 1036    0.00095107112436706
 1037    0.0031148891695097
 1038    -0.0034930371080824
 1039    0.0058876503549926
 1040    -6.204554685233e-06
 1041    -1.1599471296256e-07
 1042    -0.0001667988980392
 1043    -5.8489341402239e-05
 1044    0.00017254541920606
 1045    -0.00014204908377868
 1046    -0.00043862931173058
 1047    -0.0028850886784849
 1048    0.00079458889281014
 1049    0.0018305171463732
 1050    2.6280063839983e-05
 1051    -0.0019321258486064
 1052    -0.0010826102425399
 1053    -0.0036906916304795
 1054    -4.7200351551759e-05
 1055    3.8882601318043e-05
 1056    -0.00015723941968044
 1057    8.2813376536073e-05
 1058    -0.00024124826113318
 1059    -0.0007842145370226
 1060    0.0013924918065269
 1061    -0.0002713991305776
 1062    0.00025592328651342
 1063    0.00025627448233999
 1064    -0.0017125826338888
 1065    0.0010824078791302
 1066    0.00080060347959521
 1067    0.00045476049413632
 1068    -0.00097425772982943
 1069    0.00085666290421742
 1070    0.0024361497182364
 1071    -0.00047660887090883
 1072    -7.4374429824797e-05
 1073    -0.0002675006957014
 1074    -0.0022355754100237
 1075    0.0097423607116257
 1076    -0.00061418163729941
 1077    0.00023757138943457
 1078    0.00046937652912399
 1079    -0.0027433888673527
 1080    -0.0050557023470781
 1081    0.00051363033199252
 1082    0.00042069555673133
 1083    -0.00018372573407183
 1084    0.00031437933694015
 1085    0.0047094594828865
 1086    5.7890511074712e-05
 1087    -0.00020815494046445
 1088    -0.00017027381659898
 1089    -0.0022380959180794
 1090    0.0050984009019115
 1091     0.011954679907769
 1092    -0.0055367830253268
 1093    -0.0053487521074786
 1094    0.00040651227418827
 1095    -0.0036903358589054
 1096    -0.0046918440750556
 1097    0.0018100108765915
 1098    -0.00021867977819513
 1099    -0.00034965995551784
 1100    -0.0002732853696757
 1101    -4.1499224086022e-06
 1102    0.00053271884301595
 1103    0.00036407040281617
 1104    -0.00051852299823814
 1105    0.0089055268835342
 1106    0.0010037514050707
 1107    0.00092386687499765
 1108    0.00048649396997661
 1109    -0.0062336005754197
 1110    -0.0079088416427303
 1111    -0.002977259832643
 1112    4.0128670199121e-05
 1113    0.00045888870100152
 1114    -6.0053604626372e-05
 1115    0.00030406892472368
 1116    -0.00052178904605455
 1117    -0.0051066907649301
 1118    -0.0083533815208273
 1119    -0.00093373759945166
 1120    0.00025048746570285
 1121    9.6892527213683e-05
 1122    0.0013568495637936
 1123    -0.0071832153463611
 1124    -0.00080258762887766
 1125    -0.00055182660502193
 1126    -0.0010484564710472
 1127    0.0027318955836878
 1128    0.0061745036497655
 1129    -0.0004281002073078
 1130    -0.00066179264250425
 1131    0.00044981824735317
 1132    0.0073197840765758
 1133    -0.013477129752122
 1134    0.00016320952475862
 1135    0.0003200838230315
 1136    -0.00052494241742242
 1137    0.00082500816663621
 1138    -0.0044811744425195
 1139    -0.00022412335445192
 1140    -0.00011177975439752
 1141    8.6083806838902e-05
 1142    -0.0014690390701096
 1143    0.00034485775980907
 1144    -0.00024372595380885
 1145    -0.00015947103346445
 1146    -0.0001631402468612
 1147    -0.00014868148245882
 1148    0.00064374354033513
 1149     0.002721826276104
 1150    -4.9734093336843e-05
 1151    0.00014087870570431
 1152    0.00018454353661374
 1153    0.00014366686338723
 1154    -8.8771881108902e-05
 1155    0.0005136133338097
 1156    2.8246040649233e-06
 1157    6.6171469051178e-06
 1158    -1.7589659108318e-05
 1159    -5.516694285121e-06
 1160    -2.767119443051e-05
 1161    0.00046486096868976
 1162    0.0013028391813021
 1163    0.0032389190314464
 1164    -0.00044004795966611
 1165    -0.00056731628969887
 1166    -0.0017155471439612
 1167    0.00028723103029942
 1168    0.0014965312499978
 1169    0.0037794399266462
 1170    7.3189994910369e-05
 1171    4.7800091715276e-05
 1172    2.9144923296693e-05
 1173    -1.0232290584586e-05
 1174    0.00011969566988013
 1175     0.001162633547069
 1176    0.0029622982426693
 1177    -0.00017497134373916
 1178    0.00031413503134569
 1179    3.1322120631487e-05
 1180    0.0017399443957222
 1181    -0.0029349712933658
 1182    -0.00017593729385732
 1183    5.2640394058208e-05
 1184    0.00035358338884611
 1185    0.0023225880813907
 1186    -0.0064163551719695
 1187    -9.6125243640615e-05
 1188    0.00028084379652904
 1189    0.00032792411077599
 1190    0.0001355004769307
 1191    -0.00028836496992242
 1192    -3.9691901378985e-05
 1193    5.6428010057333e-05
 1194    1.0222900009862e-05
 1195    7.6132226324772e-05
 1196    -0.0012599051615355
 1197    4.1010342369765e-05
 1198    -4.5750813915851e-05
 1199    8.5781104655486e-05
 1200    0.00018559851805241
 1201    -0.00061236193130532
 1202    -1.9637130902175e-05
 1203    5.7204051696871e-05
 1204    -1.7875655920957e-05
 1205    -0.00047888297497855
 1206    0.0012138362835755
 1207     0.010485015218035
 1208    0.00032441219846555
 1209    0.00071923553251736
 1210    -9.5542878457549e-05
 1211    0.0033043716723719
 1212    -0.0004294799991404
 1213    0.00059625861479938
 1214    0.00012560457925232
 1215    -0.00010944449870276
 1216    -0.00010771843035674
 1217    4.2470326811754e-05
 1218    0.0001395273137814
 1219    0.0019391333617374
 1220    0.0054694424116868
 1221    0.0084725735690668
 1222    0.0006130276651046
 1223    -0.0029803354598983
 1224    -0.0014679762952627
 1225    -0.0025471446815577
 1226    0.0036164218400387
 1227    0.0026225732698865
 1228    -1.0865595040543e-05
 1229    3.0375543910996e-05
 1230    0.00050242753324282
 1231    1.1869562231448e-05
 1232    3.2815200563035e-05
 1233    0.0031854443241563
 1234    -0.00022257483192214
 1235    -0.00028593684252882
 1236    0.00080242465842255
 1237    -0.00015742337811015
 1238    0.0087299110594035
 1239    -0.010240729685833
 1240    -0.00065662878990473
 1241    0.00061898022232499
 1242    0.0013172887953733
 1243    0.0042466179543004
 1244    -0.0046786392586592
 1245    -0.00030401290397952
 1246    -6.7396326097235e-05
 1247    -0.00043959442715154
 1248    0.0022524592770042
 1249    -0.005846331924517
 1250    -0.00038361850722367
 1251    0.00019905907534825
 1252    0.0001937102789087
 1253    0.00084144594234342
 1254    -0.0059124379206673
 1255    0.00031229445807186
 1256    4.0115466272526e-05
 1257    -0.00016074141023677
 1258    0.00056027641836839
 1259    -0.0023015796779702
 1260    -0.00012379035106878
 1261    3.6781560245992e-05
 1262    -6.7195054623316e-05
 1263    -0.0012524779079523
 1264    0.0036022074149329
 1265    0.0064293496641307
 1266    0.00044804132307842
 1267    -0.0025575081060602
 1268    0.0010809736557463
 1269      0.00243303203212
 1270    0.0019078823418774
 1271    7.3215755325128e-05
 1272    -1.1827314386941e-05
 1273    2.9599276047026e-05
 1274    2.9596642355858e-05
 1275    5.2233664625001e-06
 1276    1.6510221159509e-05
 1277    0.00045363753396515
 1278    0.0014370738552697
 1279    0.0023031905463626
 1280    -0.00067483938017049
 1281    0.0024137222398726
 1282    -0.0015710369350914
 1283    -7.5860556731248e-05
 1284    -0.0034291070584938
 1285    0.0020828360369399
 1286    -3.2498523252337e-06
 1287    -0.00018649247851481
 1288    -0.00017946659401218
 1289    -0.0002235775840295
 1290    7.2467901382981e-05
 1291    -0.00066815410592629
 1292    0.0031966287629576
 1293    0.0001040880950847
 1294    7.4423316052478e-05
 1295    -1.7504071738908e-05
 1296    0.0049644600857297
 1297    -0.0067347268702171
 1298    -0.00031265051052695
 1299    -0.00048839284447231
 1300    0.00049449676963364
 1301    0.00090270880042773
 1302    -0.001493821147472
 1303    -1.2941530002457e-05
 1304    0.00024522127048161
 1305    -4.4885051599219e-05
 1306    0.0036267302533256
 1307    -0.0017001725492039
 1308    -0.0003722694460593
 1309    -0.00012015744370365
 1310    0.00010357186811967
 1311    0.0025089707649727
 1312    -0.0056043065714268
 1313    7.1838289780295e-05
 1314    -4.2069739810608e-05
 1315    -0.00011972016744898
 1316    -0.0015869633817896
 1317    -0.003282214686283
 1318    3.7104291090738e-05
 1319    9.8354722252216e-05
 1320    -0.00011361128505085
 Sym= A
 Ene=               0
 Spin= Alpha
 Occup=    0.00000
   1    -0.011357903598259
   2    -0.0024917438756751
   3     0.014557996237939
   4     0.029645814426998
   5    -0.021745627259647
   6     0.012228633533617
   7    -0.063392723890918
   8    -0.022844589103964
   9     0.013175585019557
  10    -0.066865671675614
  11     0.068219461382558
  12    -0.038448424575005
  13      0.20330145415154
  14      0.10994588670032
  15    -0.059820661752909
  16      0.29669093425612
  17    0.0026033496088384
  18    0.0052229853821961
  19    0.0044883139666645
  20    -0.0027024318352011
  21    -0.00049423257310496
  22    0.0010380877153339
  23    -0.00042350746824714
  24    0.00037738059002211
  25    0.0016194473146453
  26    9.9729999341939e-05
  27    -0.0017976218103999
  28    -0.0044431225718666
  29    0.0095553196380075
  30    0.0072002331629852
  31    -0.018990599242472
  32    -0.0026718321538342
  33    0.0015004038177992
  34    -0.025941741640116
  35    -0.0031578991356346
  36    0.0015916679578072
  37     0.071690465202373
  38     0.010083005970834
  39    -0.0069501400888259
  40     0.092276686698745
  41    0.0082118567626358
  42    -0.00023240783775104
  43    3.4770357571425e-05
  44    0.0021230784267434
  45    0.00012528792447556
  46    0.0004130098113127
  47    -0.00029974296051071
  48    -0.00062660316337169
  49    0.0048985180929875
  50    -0.00030746553047816
  51    0.00062099515980802
  52    -0.00058767081322005
  53    -0.0037904867304307
  54    -0.0048882879383342
  55     0.011526315436064
  56     0.006891605814052
  57     0.002765962694456
  58    0.0017987104503333
  59    0.0060078091237086
  60    0.0033924846680813
  61    0.0023389212683067
  62    0.0075476307875993
  63    -0.010582211682707
  64    -0.0052037240574229
  65    -0.024676218926175
  66    -0.0088587469722751
  67    -0.0085908510382811
  68    -0.017574026636571
  69    0.00084815937732035
  70    0.00057573532712891
  71    0.0013528801078349
  72    0.00048164969836582
  73    0.00045727686929615
  74    -0.00039832295979922
  75    -2.9398026091575e-05
  76    0.0039494636532511
  77    -0.00037601729148836
  78    0.0018679482882281
  79    0.0031955979189751
  80    0.0037059754015325
  81    -0.010425775490213
  82    -0.00089898136975791
  83    -0.0056688156692643
  84    0.00029689887451562
  85    -0.044666267958846
  86    -0.007180853116508
  87    0.00076816760213931
  88    -0.060996089502971
  89     0.025559514673432
  90    -0.0014678753900151
  91      0.17370480286671
  92     0.012495086858785
  93    -0.002394891756388
  94      0.20364465358454
  95    0.00057038870943392
  96    0.0013885864725429
  97    -0.0024819152953515
  98    -0.0010481155595853
  99    -0.00034095571169956
 100    -0.00010018162826001
 101      0.00586337970081
 102    -0.003749425400861
 103    0.00026014640199272
 104    -2.0425693853936e-05
 105    -0.0083612087888198
 106    -0.016540913219537
 107     0.040107023061205
 108     0.023192165440562
 109    -0.0078409370231477
 110    -0.0018109389128597
 111     0.012511380466371
 112    -0.011129029263226
 113    -0.0021330788394612
 114     0.015241159901103
 115     0.030963184107673
 116    0.0065703989606513
 117    -0.046561271426826
 118     0.034693037658212
 119     0.005342537527805
 120    -0.039069898094274
 121    0.00049185590928739
 122    -0.0031266177830365
 123    0.00013314491181338
 124    0.00044733130294705
 125    0.00052033733708252
 126    -0.0024310645417086
 127    -0.0048602825152545
 128    0.00023993752732539
 129    0.0036429132786079
 130    0.00057143734571461
 131    0.0057300256260046
 132     0.013592824654996
 133    -0.032338323253158
 134    -0.022913833364048
 135    0.0013041688930479
 136    0.0089069629834586
 137    0.0078855458269963
 138    0.0010865292073703
 139     0.012080789093078
 140     0.010286132635253
 141    -0.0047602949392259
 142    -0.035307092289285
 143    -0.029365641787009
 144    -0.00020514387833709
 145    -0.038454647815547
 146    -0.029070634236942
 147     0.001683000212294
 148    0.00064242201012306
 149    -0.0016939119725997
 150    0.0022158337180759
 151    0.00020472195143678
 152      0.00129478960047
 153    0.00061608286061963
 154    -0.004351627142716
 155    0.0022292852692198
 156    -0.0012116654378416
 157    -0.021982158903253
 158    -0.043796354580413
 159      0.10456460433887
 160     0.064136416444784
 161    0.0095961810789188
 162     0.002824891776982
 163    -0.022834988173378
 164      0.01177231627705
 165     0.003901196533691
 166    -0.031792930745187
 167    -0.036258818651919
 168    -0.010268301715968
 169     0.088823364995758
 170    -0.029317060659777
 171    -0.014525510936476
 172     0.098377900031276
 173    0.0027866135862283
 174    -0.002584975949972
 175    -0.00042901541944394
 176    0.00066983926631199
 177    0.00049789315014362
 178     0.007725190773556
 179    -0.0032849669078844
 180    -0.0022565737016059
 181    -0.00022521440623188
 182    -0.00018606969075044
 183     0.037928204463672
 184    0.0079725439634296
 185    -0.062570764051316
 186    -0.056155163621563
 187      0.11208845678644
 188    -0.0058567552766675
 189    -0.059214555806716
 190      0.11891912399315
 191    -0.0069481139561717
 192     -0.06279039332648
 193     -0.36519374628472
 194     0.020448608196146
 195      0.19126361816511
 196     -0.54361354861068
 197     0.026248343605143
 198      0.28768930494745
 199    0.0066088608499483
 200     0.013039634004124
 201    0.0038368248555301
 202    -0.0068916162209281
 203    -0.0070395946393743
 204    -0.004202601034154
 205    0.0010089897433398
 206    -0.00088023103890503
 207    0.0024560927078873
 208    0.00062598675516953
 209     0.011996557795871
 210     0.024579978410663
 211    -0.057331176521064
 212    -0.041941487864871
 213      0.10030154656427
 214    0.0011761725058216
 215    0.0023294425822024
 216      0.13553042314059
 217    0.00082717767602319
 218    0.0024592197747065
 219     -0.38743803135982
 220    -0.0061054409256372
 221     -0.01016566258026
 222     -0.44329587742738
 223    0.0074615696796837
 224    -0.0034020764880248
 225    0.0018592314234148
 226    -0.0011582696847231
 227    0.00055049927239941
 228    -0.0035682278364773
 229    0.0026364264581448
 230    -5.7393666490273e-05
 231    -0.0031889534491419
 232    -0.0005162730134444
 233    -0.00060384265286697
 234    0.0059820081646837
 235    0.0028314741204835
 236    0.0018976272770567
 237    -0.0036562357819866
 238    -0.0010111873612873
 239    -0.0095242804863687
 240    -0.00086774929545844
 241    0.0047727338616514
 242    -0.012530434588831
 243    -0.00062388296849298
 244    0.0062692754590048
 245     0.039842346453371
 246    0.0003881313562153
 247    -0.020079147550485
 248     0.033192653839933
 249    -0.0012550119716442
 250    -0.017124421318269
 251    -0.00055473819053507
 252    3.0778816382896e-05
 253    0.00082701385988684
 254    -0.0022517732159259
 255    -0.0017917093870739
 256    -1.35471794405e-05
 257    0.0018373857769996
 258    0.0044615779204259
 259    0.00077519845794516
 260    -0.0086105944517631
 261     0.019689692072068
 262     0.041688753712005
 263     -0.10078159980232
 264    -0.056012326362796
 265    -0.020126093015411
 266    -0.0020607038221952
 267    -0.019164974314208
 268    -0.025865274452074
 269    -0.0021673788603803
 270    -0.026957106417245
 271     0.075895089427567
 272    0.0077505673751941
 273     0.078156536687578
 274     0.073729577560691
 275    0.0033182501969835
 276     0.078046244635087
 277    -0.0014015462053944
 278    -0.0045712153552423
 279    -0.00051243383443334
 280    -0.0010026717679443
 281    -0.0016731993470765
 282    -0.0082540293683028
 283    -0.011596677302919
 284    -0.00032940858988046
 285    0.00029840457040123
 286    0.0023218826617216
 287     0.038382832604265
 288     0.082081474076756
 289     -0.19316175242699
 290     -0.12227915402541
 291     0.040101330107066
 292    -0.0041741049173113
 293     0.014948678657224
 294     0.056001511165932
 295    -0.0045698444425894
 296     0.018783203281113
 297     -0.16194399874264
 298     0.015722108183476
 299    -0.056018549290089
 300     -0.16985135111594
 301    0.0085785344517957
 302    -0.053112323069564
 303    0.0021673914384866
 304    -0.0033482781314495
 305    0.0015326572293017
 306    -0.0049283663744782
 307     0.001262833000255
 308    0.0080365499139854
 309    -0.0085369140261228
 310    -0.0028815875259881
 311    -0.013976193071035
 312    0.00088053752449247
 313    -0.0070717196262548
 314    -0.018581806074912
 315     0.045095033151408
 316     0.028300607602797
 317    -0.013367109518586
 318    -0.013722610715709
 319    0.0057641200210126
 320    -0.016747732997841
 321    -0.018157670697027
 322    0.0069299038846208
 323     0.050829735179607
 324     0.055015750252391
 325    -0.021130774800005
 326     0.043029216705338
 327     0.054661675613392
 328    -0.017717950529801
 329    -0.0020502650443381
 330    0.0012478873184943
 331    -0.0003005316878944
 332    -0.0048463574586619
 333    0.0019974276369103
 334    -0.0018282153144683
 335    0.0013182045734329
 336    -0.0040799588807045
 337    -0.0034743223769021
 338    0.0085578697425755
 339       0.0193621150965
 340    0.0034935390130982
 341    -0.024940011304666
 342    -0.051035062379393
 343    -0.021765314522988
 344     0.010899537163249
 345     0.028611857055967
 346    -0.022563583099341
 347     0.011515287270812
 348     0.029941818514933
 349     0.072137508141313
 350    -0.035282892907186
 351    -0.092627075648382
 352     0.099359042642018
 353    -0.048831023106967
 354     -0.13497177884086
 355    -0.0017084796153255
 356    0.00024158485128588
 357    0.00029642880742491
 358    -0.0045147063965864
 359    0.00086862038959713
 360    0.00026722388774652
 361    -0.0016352705536306
 362    0.0002189027669479
 363    0.0016500213006731
 364    -0.0005657549885058
 365     0.005873032768816
 366     0.012441765170827
 367    -0.029235885530933
 368    -0.016880980027035
 369    -0.0073354135186695
 370    8.8327429072969e-06
 371    -0.0047404570925079
 372    -0.010214002974489
 373    0.00011947535165719
 374    -0.0051803722886962
 375     0.028733580405347
 376    -0.00019762089656887
 377     0.017552569368372
 378     0.028422296144155
 379    0.00040285566681677
 380    0.0095763520860868
 381    0.0005624419772083
 382    -0.0008034985431713
 383    0.00042247166049461
 384    -0.00074938432526096
 385    9.7925639783076e-05
 386    0.00063703999207356
 387    -0.0018424857387806
 388    -0.00053867985962526
 389    -0.0022638416589579
 390    -0.00044603140430494
 391    -0.0038285044988983
 392    -0.007961060362658
 393     0.017472034934725
 394      0.01763164549501
 395    0.0031458011927386
 396     0.004449849909625
 397    -0.0042999247323294
 398    0.0037488029255864
 399    0.0062200650130251
 400    -0.0052973460771333
 401    -0.012332880478687
 402    -0.017001509727867
 403     0.016329321508817
 404    -0.0087050084073458
 405    -0.024633686136369
 406      0.01365536549783
 407    -0.00088667112055804
 408    0.00013633551995701
 409    -0.00092394789381864
 410    -0.0014901981137858
 411    0.00067200429629533
 412    -0.00027161934145263
 413    -0.00033726670793031
 414    -0.0024262685079735
 415    -0.00048724867691109
 416    0.0018818794415052
 417    -0.0064360091251388
 418    -0.014022087040507
 419     0.034175380991802
 420     0.012908433079136
 421    -0.012752613959613
 422    -0.00068336864941835
 423     0.017986242822389
 424    -0.016643940955951
 425    -0.0010288825054134
 426     0.024508741332079
 427      0.05118579012942
 428    0.0021234875197689
 429    -0.068544889300568
 430     0.044992371734476
 431    0.0057197084913737
 432    -0.094720904071889
 433    0.00079247887534467
 434    0.0044688714347051
 435    -0.00082893974233941
 436    0.00056292655450605
 437    0.00011089488812934
 438    0.0019194324780527
 439    0.0098882095373887
 440    -0.00087581268007241
 441    -0.00080200991689804
 442    -0.00086817971469763
 443    0.0025915537901381
 444    0.0055158007649578
 445    -0.014590996536652
 446    -0.0034017165156985
 447    0.0022977606613423
 448    0.0029915968788188
 449    -0.0030932615684638
 450    0.0031313511118028
 451     0.003980874488968
 452    -0.0040291175396602
 453    -0.008730988212472
 454    -0.012189593461572
 455     0.011577065881565
 456     -0.01024606446027
 457    -0.0074768263213562
 458     0.012719582604687
 459    0.0001136186716185
 460    -0.00020464012229933
 461    0.00069326370152273
 462    4.2576255434906e-05
 463    -0.00055113717873875
 464    0.0003229624014193
 465    0.00069192184432317
 466    0.0019504687084443
 467    0.00067708960682601
 468    -0.0015083989859689
 469    0.0085753909127359
 470     0.017691791966257
 471     -0.04175203931867
 472    -0.025576654574907
 473    0.0031568732081986
 474    -0.00023607677784298
 475     0.009989443200344
 476    0.0035928301589134
 477    -0.00034250150518905
 478      0.01393650220049
 479    -0.011830326032685
 480    0.00069573403210242
 481    -0.039276190287227
 482    -0.0075233548698708
 483    0.0025472578196773
 484    -0.040634324936437
 485    -0.0013710503459182
 486    -0.00067843133945974
 487    -0.00011408817422095
 488    -2.5376607633136e-05
 489    -0.00033112364998067
 490    -0.0032935092843638
 491    -0.0012433262250803
 492    0.00081764953750471
 493    -0.0001386654187397
 494    0.0006401921802997
 495    -0.032335011780208
 496    -0.0067501838460961
 497      0.04180963120803
 498     0.088989837931328
 499      0.14743122410282
 500    -0.008459594199348
 501     0.010794574460068
 502      0.15565028211501
 503    -0.0089904360956609
 504     0.011019500702416
 505      -0.4737470780078
 506     0.026692229655289
 507    -0.031361726879855
 508     -0.68453783703242
 509     0.038177849049124
 510     -0.07246612689835
 511    -0.0002594852369075
 512      0.01002906543081
 513    0.0001315410613533
 514     0.010289495070876
 515    -0.011485219133411
 516    -0.0016558506675909
 517    -0.0020178741318511
 518    4.0146825990691e-05
 519    -0.0013276147751018
 520    0.00043753724223557
 521    -0.049140983761847
 522    -0.098202720258921
 523      0.23422941262489
 524      0.14306956747291
 525     0.053416726112046
 526     0.012291824671994
 527    -0.012032230450655
 528     0.074162361121276
 529     0.016185064882734
 530    -0.014405953647758
 531      -0.2071633486372
 532    -0.045126287018812
 533     0.045103082664081
 534     -0.22756718375091
 535    -0.051175050729777
 536     0.032889782449582
 537    -0.0031362371167936
 538    -0.0042066590990076
 539    -0.0013701180282198
 540    0.0064353737972597
 541    0.0026087221369548
 542    -0.0099897496928748
 543    -0.0010178619162792
 544    0.0014766783208173
 545      0.01456348158301
 546    0.0071268867792357
 547    0.0038163287126582
 548     0.011185440727241
 549    -0.024709744763597
 550    -0.024556384057322
 551    -0.013495992126311
 552    -0.0077284331836569
 553    -0.00056953308160653
 554     -0.01721179963634
 555    -0.010678097074776
 556    -0.00038289193627561
 557     0.055167625292785
 558     0.031530881605104
 559    0.0022066595841254
 560      0.04172522705754
 561     0.037718459810949
 562    -0.00052569128863025
 563    0.00085667540155503
 564    0.0007682278722328
 565    0.00039860360867879
 566    0.0039884843807448
 567    -0.0031605715548092
 568    0.0010915654594282
 569    -0.00011401204483329
 570    -0.0011648103612942
 571    0.0011994319728475
 572    -0.0087766083055738
 573    -0.0016475700772826
 574    0.00033473451626882
 575    0.0016654990242083
 576    -0.0045166665753178
 577    -0.021655785525311
 578    0.00080793141461558
 579    -0.0042996558085622
 580     -0.02679062675991
 581    0.0011340429623612
 582    -0.0050171786595121
 583     0.080128901197113
 584    -0.0030788544777078
 585     0.016439639321789
 586     0.072673532003661
 587    -0.0029730507135843
 588     0.013266236823309
 589    -0.0037777968935238
 590    -0.0046171219869512
 591    -0.00016537937374623
 592    0.0018104081339939
 593    -0.00053929763462952
 594    0.0018522012582134
 595    -0.010852851939614
 596    0.00063455566314695
 597    -0.00083938551125102
 598    -0.0016820869282954
 599    -0.003858068224804
 600    -0.0061781922961936
 601     0.019664825905618
 602    -0.0065869332068941
 603    -0.022522964425531
 604    -0.0017586159660543
 605    -0.0023636265126884
 606    -0.029501880777568
 607    -0.0023332526365063
 608    -0.0023701480336921
 609     0.083313436988739
 610     0.007804025009499
 611    0.0084132909800281
 612      0.08882100153593
 613    -0.0026509663246795
 614    0.0053633348252576
 615    0.00025808044540061
 616    0.0004063784974671
 617    0.00020097784764544
 618    0.0018433253623671
 619      0.00603867544031
 620    -0.00058648150855992
 621    -0.00042842771027437
 622    0.0016430003133116
 623    -0.0024667268268267
 624     0.010975619098959
 625    -0.00029554760027128
 626    0.00088145136830196
 627    -0.0032833557649504
 628    -0.00092544744214814
 629    0.0016643807353502
 630    0.00084289014216768
 631    -0.0022472761018253
 632    -0.0017355350118805
 633    0.0025550145695082
 634    0.00011487895663672
 635    0.00028654198833701
 636    -1.3941305946834e-05
 637    3.0702301543996e-05
 638    0.00011729974942413
 639    -0.0019980259535029
 640    -0.0063553894125344
 641    -0.00030234160813993
 642    -0.0021079652071824
 643    0.0041826927454386
 644    0.0032525602344337
 645    0.0037928678288676
 646    0.0009723159804585
 647    -0.0052402467315581
 648    -4.1406022038774e-05
 649    0.00027246413548273
 650    0.00012126404622582
 651    -6.3169411572163e-05
 652    0.00017193954682578
 653    -0.0061491882979197
 654      0.01050165344865
 655    -0.00050452356920076
 656    -0.00015258731683564
 657    -0.00046229153271704
 658    -0.00075364784156424
 659    0.00038526802386555
 660    0.0003050601189255
 661    7.4656353448704e-05
 662    -0.00058447759455507
 663    -0.0080293234194585
 664    -0.0079984804697484
 665    -8.1293504004833e-06
 666    0.00010338641563833
 667    0.00051020338820137
 668    -0.0014039362738089
 669    -0.0015726009515354
 670    -9.2150658751013e-05
 671    -4.3335070147542e-05
 672    -6.8321325716328e-05
 673    -0.0016475242801785
 674    0.0024906061693238
 675    -3.4976979505131e-05
 676    1.1407246627266e-05
 677    -0.00013595010251133
 678    0.00075537261175606
 679    0.0013964056586064
 680    0.00017151836729183
 681    -5.2981832879896e-06
 682    3.1170660358098e-05
 683    0.0017036305683891
 684    -0.0042709898419429
 685    -0.0093024967936643
 686    0.00027636137251558
 687    0.0035709373996478
 688    -0.0093475197151778
 689    0.0028592404038591
 690    0.0032544466820171
 691    -0.0092154390795496
 692    -0.00024574858839272
 693    -1.435289819087e-05
 694    0.00010553895693357
 695    1.7815972567654e-05
 696    1.7553819938597e-05
 697    -0.00049406736991213
 698    -0.0011878580729469
 699    -0.0033435459377167
 700     0.001062671061673
 701    -0.0011131676120653
 702    0.00089728136270317
 703    -0.00038445684380179
 704    0.00028242709321382
 705    -0.0010349439214337
 706    1.866180850508e-05
 707    0.0002790371581318
 708    1.1589717668954e-05
 709    1.7739190931842e-05
 710    -4.0389935687948e-06
 711    -0.0018891189740059
 712    0.00060133019357813
 713    -4.135319696802e-07
 714    0.00025395233274801
 715    0.00061708169867406
 716    -0.00017520054059839
 717    -0.003150252577233
 718    -0.00011982140269738
 719    0.00017237896691865
 720    -0.00017341937612705
 721    -0.00089622077075837
 722    0.0061912455566848
 723    2.1113164148343e-05
 724    -0.0003101493396664
 725    -0.00010221466677354
 726    0.00053811556786293
 727    0.00059531486794757
 728    -0.00028740138292078
 729    0.00032911828264006
 730    0.00015593053839629
 731    0.00098533485391015
 732    0.0017603982806496
 733    -3.7713333984017e-05
 734    1.5686083822192e-05
 735    -0.00034258374729521
 736    -0.0065909627437144
 737     0.012315302183034
 738    -3.8991782828605e-06
 739    -0.00037875553522644
 740    0.00023558284676086
 741    0.00054039296513035
 742    -0.0029458421835035
 743    -0.014895500503232
 744    -0.00012253463893247
 745    0.00017705672189271
 746    0.00012078613751837
 747    0.00036741966212818
 748    0.00045540072417334
 749    0.0011325244573442
 750    -2.3123338816958e-05
 751    5.5923910129155e-05
 752    -4.6122693233635e-05
 753    5.6006899873306e-05
 754    4.5214731235401e-05
 755    -0.0034896209550019
 756    -0.0087799667917298
 757    -0.020722687733489
 758    0.0011117775433586
 759    -0.0063753254500601
 760    -0.0041290527368791
 761    -0.0056986084916491
 762     0.015357722365518
 763     0.010251022275946
 764    -4.1140589798811e-05
 765    -0.0004552161196541
 766    0.00027368656789039
 767    -9.6773922155769e-05
 768    -0.00035834448883146
 769    -0.0086049111203184
 770     0.018016473864344
 771    -3.0494523302871e-05
 772    0.0013811059500134
 773    0.00087786696668984
 774    -0.0062724174875616
 775    0.0076706374109879
 776    -0.00085152516826492
 777    0.00025222965849694
 778    0.0010085262675276
 779    -0.0073396511400788
 780    0.0079179123795029
 781    -0.00093309483021103
 782    0.0013530422814916
 783    9.5295236963502e-05
 784    -0.00046934072017248
 785    0.0044184238190105
 786    2.0792580400065e-05
 787    -4.4788770929796e-05
 788    0.00029831355499682
 789    -0.00089714107331627
 790     0.002540963825236
 791    -0.00021245732185661
 792    0.00010617449180989
 793    4.1341077023574e-05
 794    -0.00070764845842231
 795    0.0038190252382527
 796    8.4423239701444e-05
 797    0.00027232584771852
 798    -0.00018680219689116
 799    0.00032408591879675
 800    -0.0010982229495355
 801    0.0021384078705484
 802    0.0004086942417115
 803    0.00030265328861645
 804    -0.0011757499336545
 805    0.00065345625569613
 806    0.00029247613303051
 807    -0.0011206565941929
 808    8.0915824399955e-05
 809    -2.7404743392187e-05
 810    -3.6939328329204e-05
 811    2.9082076471104e-05
 812    3.7665355238994e-05
 813    0.00055813598499748
 814     0.001285424028456
 815    0.0028140750705443
 816    0.0035593125162543
 817    -0.0017090043067368
 818    0.00024923545925251
 819    -0.0062515232122979
 820    0.0022993374726802
 821    0.00027833869543199
 822    -8.2330958450481e-05
 823    0.00019327108343721
 824    -4.7634708730217e-05
 825    -7.9019685121435e-05
 826    -0.00042114169477825
 827    0.0038222858962783
 828    -0.009574149902419
 829    -0.00054923907064006
 830    0.00022451635235683
 831    0.00031706009630586
 832    -0.00072278178786524
 833    0.00076196998303812
 834    0.00019123885120304
 835    -4.430283365781e-05
 836    -0.00015042090884727
 837    -0.0011184919237405
 838    0.0042678271045779
 839    -0.00024634696253332
 840    -0.00022058913608106
 841    -0.00010276663964069
 842    0.00020887741069199
 843    -0.0024941249476074
 844    -0.00026680610923168
 845    -7.0458580550366e-05
 846    0.00011471814966064
 847    -0.0006804618109882
 848    0.0014967594694229
 849    -6.6661328938445e-05
 850    0.00011189860709727
 851    1.885079795257e-05
 852    0.00093802055841715
 853    -0.0014427230392782
 854    1.1332299056179e-05
 855    -3.0595737742924e-05
 856    -0.00011600233040396
 857    -0.00054843493861901
 858    0.0010414011130706
 859    0.0057610857066225
 860    0.00060450054582126
 861    0.00056449207235355
 862    0.0043552658235204
 863    0.0024762793306899
 864    -0.0034405206278162
 865    -0.0014422141204737
 866    -5.6724665290308e-05
 867    -0.00056591914527515
 868    0.00023321534225617
 869    -1.4240577318247e-05
 870    0.00025389297587126
 871    -0.0004019738215516
 872    -0.00092438383840779
 873     0.001348185626634
 874    -0.00072693129169053
 875    -0.00042102523522974
 876    0.0026597142834653
 877    0.0022991261083505
 878    0.0011048171354831
 879    -0.016646964279993
 880    6.7728910700256e-05
 881    1.2833576167646e-05
 882    -8.2603602271392e-05
 883    7.3439321145758e-05
 884    -0.00024509239793103
 885    -0.0080557205887695
 886     -0.01280897156104
 887    0.00022555022921145
 888    -0.00080883102540175
 889    -0.00023871789240189
 890     0.011926390847404
 891     0.016474134579775
 892    -0.00087031553073316
 893     0.001183381056963
 894    0.00090572702141282
 895    -0.0034549613535876
 896    -0.0060461040223092
 897    -0.00012044124842438
 898    -0.00021955433184172
 899    -0.0014543021890594
 900    -0.00010921261982011
 901    -0.0031370928238071
 902    -0.00018791793560955
 903    -4.2568452587421e-05
 904    0.00058290762873764
 905    0.00058672332653689
 906    -0.00069397502560487
 907    -0.00050378441131554
 908    -0.0010205660455436
 909    -0.00021600767423751
 910    -0.0037160741185192
 911    -0.0035071399877202
 912    0.00043607431296887
 913    0.00066722052807481
 914    -0.00028957077843548
 915    0.0011070524334491
 916    -0.0048084163235787
 917    -0.0082663694396373
 918    -0.00015969858746346
 919    -0.0035302608717821
 920    -0.0012385237757839
 921    -0.0039637379253134
 922    -0.0018756961488527
 923    -0.001649308526274
 924    8.2428137244792e-05
 925    0.00019624906001469
 926    0.00021493271814453
 927    -6.5971092150622e-05
 928    -0.00024370643212053
 929    -0.00053013604360982
 930    -0.001340345757587
 931    -0.0080906694687006
 932    -3.4672301890959e-05
 933    0.0031147534381861
 934    -0.0019993220650932
 935    -0.0047655257891565
 936    -0.0090449861975446
 937     0.012648001821335
 938    -0.00012260660558691
 939    0.00028891664648874
 940    -0.00034513448167934
 941    -1.1565148262931e-05
 942    -7.3672112814358e-06
 943    0.0044503465539049
 944     0.016167339325965
 945    -0.0021348410860081
 946    -0.00031776473610702
 947    0.00012416387806238
 948    -0.004987516985739
 949    -0.00080614595136538
 950    -0.00032472344884086
 951    -0.0013993391458547
 952    0.00028966119148191
 953    -0.0028850181496958
 954    0.0015814065803607
 955    -0.00041092540340025
 956    0.00020368170610813
 957    0.0012528351666318
 958    -0.002211926034398
 959    0.0011974589716756
 960    1.7127577434153e-05
 961    -0.0001266204716694
 962    0.00022933772721409
 963    -4.267435224395e-05
 964    0.0036707690099024
 965    4.033319244532e-05
 966    2.0249851753231e-05
 967    -0.00025496748980259
 968    0.00097512114083947
 969    -0.0003780653315059
 970    0.00016546441993682
 971    -6.3092527669268e-05
 972    0.00028248029964395
 973    -0.00049412506437722
 974     0.001661890544152
 975    0.0010579587201442
 976    -0.0028593920897655
 977    -0.00044666227335898
 978    -0.0014396661937212
 979    -0.0016980955879424
 980    0.0016384658139016
 981    -0.0043184329257763
 982    3.8280659926995e-05
 983    7.4704496208793e-05
 984    -5.486979774565e-05
 985    7.1705311583375e-05
 986    2.4238288243396e-05
 987    0.00090948964428268
 988    0.0023151047377326
 989     0.004493048334526
 990    0.0011379482498721
 991     0.001443414985526
 992    -0.00060889209149984
 993    -0.00028644730290064
 994    -0.00058377297147991
 995    8.7562149793242e-05
 996    -2.5329506583572e-05
 997    3.3601726823599e-05
 998    -2.591121989678e-05
 999    -3.6220039902599e-05
 1000    -1.5147262855045e-06
 1001    0.0027621564115619
 1002    -0.0003957661809574
 1003    -1.6837628653577e-05
 1004    3.2172899097913e-05
 1005    0.00010490943236817
 1006    0.00017987405938727
 1007    -0.00018140606107877
 1008    1.5729759291106e-05
 1009    -0.00029014985141122
 1010    0.00011068540398189
 1011    0.00066629461430249
 1012    -0.0035924530811384
 1013    -9.5972292937423e-05
 1014    0.00020604829815387
 1015    -6.0834430233663e-05
 1016    -7.4057943641986e-05
 1017    0.0013245589743041
 1018    -9.0966825390579e-05
 1019    -7.8758299552549e-05
 1020    5.2752968457007e-05
 1021    -0.001306799505874
 1022    -0.0012001699008441
 1023    -3.7186387770472e-05
 1024    5.0875560771337e-05
 1025    5.7990069447976e-05
 1026    0.0022558445681461
 1027    -0.0040674444272696
 1028    0.00010268692650551
 1029    8.1577247039087e-05
 1030    2.7278746028694e-05
 1031    -0.00092762359489389
 1032    0.0016934627654102
 1033     0.017366634490445
 1034    -0.0011935502041588
 1035    -0.0017443376606942
 1036    0.00068695466960027
 1037    0.0046753850725847
 1038    -0.0018718443600024
 1039    -0.0036536878800951
 1040    2.1905515598161e-05
 1041    8.2688150832225e-05
 1042    0.00016499115609835
 1043    -4.9481514512824e-05
 1044    -8.0182038762137e-05
 1045    -0.00056408729264546
 1046    -0.00062126356233814
 1047    0.0015341911509957
 1048    -0.0010548194076864
 1049    -0.003385421197205
 1050     0.001247339477177
 1051    -0.0010175317066134
 1052      0.00839902858283
 1053    0.0020314583365301
 1054    -9.6359077070862e-05
 1055    -0.00023017152457135
 1056    -7.2270076008746e-05
 1057    -7.2616914906556e-05
 1058    6.377096695211e-05
 1059    -0.0010770165245786
 1060    -0.0042137896142198
 1061    -8.6122035047134e-05
 1062    0.00052608549873529
 1063    -0.00081061370876659
 1064    0.0068282163984981
 1065    0.0012204807787213
 1066    -0.00086262277153549
 1067    -0.0016040542030263
 1068    0.0020088665727291
 1069    -0.0027134261483759
 1070    -0.0029789551295682
 1071    9.0438464881385e-06
 1072    0.00017596044083737
 1073    0.00037367021609822
 1074    0.00076768180777115
 1075    -0.007063253468858
 1076    0.00022743777890387
 1077    -0.00055538456923066
 1078    -0.00030333657388741
 1079    0.00096967505053569
 1080    -0.010710307737119
 1081    0.00047113782095428
 1082    -0.00049381282766284
 1083    -0.0012724086152946
 1084    -0.0031141518111575
 1085    -0.0035783561306275
 1086    -0.0002437951954603
 1087    0.00041199043729423
 1088    0.00070420917609166
 1089     0.001450138857564
 1090    -0.004225764997426
 1091    -0.0077385747038643
 1092    0.0046725095213963
 1093    0.0045478595008927
 1094    0.00062164577595563
 1095    0.0051599655538891
 1096    0.0031163523497895
 1097    -0.0030868506614135
 1098    9.6609106448355e-05
 1099    -0.00032405551271133
 1100    -0.00029571490427382
 1101    3.1173026373179e-05
 1102    0.00026406369586329
 1103    -0.00023845344492704
 1104    -0.0022549682432377
 1105    0.0053211797101393
 1106    -0.00067038885604206
 1107    0.0010406150708458
 1108    -0.0012565272657024
 1109    -0.00068406443562715
 1110    -0.010549438791166
 1111    -0.0023347856919352
 1112    0.00019880122747433
 1113    0.0005778527713446
 1114    0.00018843290424451
 1115    0.00018835288690985
 1116    -0.0002295580134009
 1117    -0.010934675976362
 1118    -0.014631935134801
 1119    -0.0015036493804508
 1120    0.00042424025356708
 1121    0.00048955090344843
 1122    -0.0013469672485958
 1123    0.0048823525536089
 1124    -0.00010607642557147
 1125    -0.0006010000757148
 1126    -0.00075285756039455
 1127    0.0010327763040484
 1128    0.0040036700890313
 1129    -0.0002441747741414
 1130    -0.00033898435196006
 1131    0.00045638409443942
 1132    -0.0033218276255147
 1133    0.0053104965798613
 1134    -0.00036243932285606
 1135    -0.00018986590348512
 1136    -0.00015866631985141
 1137    0.0011182414733245
 1138    0.0023336607862172
 1139    0.00015613374557513
 1140    -0.00021188299426973
 1141    0.00015418727954947
 1142    4.5527284357444e-05
 1143    0.0053552052336133
 1144    -0.00020589560320094
 1145    0.00029876199198683
 1146    -4.0777040428066e-05
 1147    0.00027973731543476
 1148    -0.0013047028558638
 1149    -0.0043398782217098
 1150    0.00014650687376522
 1151    -0.0003256514027727
 1152    -0.0001574338531957
 1153    0.00024012410380453
 1154    0.00063978436384628
 1155    -2.6295873047078e-05
 1156    8.6577705110013e-06
 1157    -6.2568703197105e-05
 1158    -1.0949821931366e-06
 1159    3.0923890460619e-05
 1160    -1.6868355501159e-05
 1161    -0.00095768415166774
 1162    -0.0029841875193614
 1163    -0.0047596644351255
 1164    -0.0011100926825264
 1165    0.0019455894121531
 1166    0.00072173745924654
 1167    0.0029783523755487
 1168    -0.0028544240383626
 1169    -0.0018668905497275
 1170    1.4879178124722e-07
 1171    -6.2175922226108e-05
 1172    9.5811446434512e-05
 1173    -3.6062743649202e-05
 1174    -2.711057713114e-05
 1175    -0.0037756882349989
 1176    0.0039312815423093
 1177    0.00041044806705499
 1178    -0.00064975396810299
 1179    -0.00026426336736541
 1180    -0.0031895633718207
 1181    0.0044835403263678
 1182    0.00053566085498592
 1183    -0.00010315061246503
 1184    -0.00048407629825494
 1185    -0.0036285481849508
 1186    0.0012522810114087
 1187    0.00026529567233573
 1188    -0.0006739039017039
 1189    -0.00041097547583207
 1190    -0.00015929185689481
 1191    0.0015057892330348
 1192    0.0001451960093096
 1193    -2.4203587422381e-05
 1194    4.6868737476331e-05
 1195    -0.00022910743404398
 1196    0.0013255255335032
 1197    -3.3045035126475e-05
 1198    -3.7359836050038e-05
 1199    -0.00013784488750832
 1200    -0.00051784875240538
 1201     0.001339140277658
 1202    -1.2444179027094e-05
 1203    -0.00013004700723835
 1204    -5.0170241151376e-06
 1205    -0.00032231510952447
 1206    0.00037476987045578
 1207     0.013549598072526
 1208    0.0013506260577645
 1209     0.001160127493534
 1210    7.9446176863022e-05
 1211    0.0048132713199189
 1212    -0.00068262790779355
 1213    -6.0478957469068e-05
 1214    0.00022531912197883
 1215    -0.00015615588290234
 1216    -0.00028316363158433
 1217    0.00010411048285749
 1218    0.0002394958554044
 1219    0.0024732637909704
 1220    0.0071758020969684
 1221    0.0083181508261787
 1222    0.0014105447989006
 1223    -0.0047937758586839
 1224    -0.0068880405494178
 1225    -0.0053082238651042
 1226    0.0044423025421218
 1227      0.01233692461083
 1228    -0.00030389909552673
 1229    0.00047900322766355
 1230    0.0012833132849347
 1231    -0.00019814018033963
 1232    3.3920427623861e-05
 1233    0.0027386200125258
 1234    -0.00029754590745423
 1235    -0.00029183562299354
 1236    0.00092826821134848
 1237    0.0001328632719848
 1238     0.015479462032427
 1239    -0.018263727380923
 1240    -0.0013646652443442
 1241    0.0012962434613968
 1242    0.0019697863374417
 1243     0.001720516126509
 1244    0.0042340983625365
 1245    6.1292310290767e-05
 1246    -0.0006232042781885
 1247    0.00038692261940238
 1248    0.0038167252203545
 1249    -0.010602685699445
 1250    -0.00047758867912438
 1251    0.00020551489554171
 1252    0.00056508648185424
 1253    0.0020053619219196
 1254    -0.0084871238574447
 1255    0.00045979415528315
 1256    -4.6509406304334e-05
 1257    -9.1752753934111e-05
 1258    -0.00060857748035568
 1259    -0.00021543076240746
 1260    -0.00016161459080792
 1261    0.00028070073951939
 1262    7.4113272984346e-05
 1263    -0.0013991033684276
 1264    0.0045367551449588
 1265    0.0052271572649994
 1266    0.0016187590810419
 1267    -0.0017299429819618
 1268    0.0035851611215879
 1269    0.0077636131860878
 1270    0.0046868636460431
 1271    0.00075230514580708
 1272    -2.7038817295136e-05
 1273    0.00011768383843304
 1274    -0.00012832621969749
 1275    8.9542077019971e-05
 1276    4.8700260318379e-05
 1277    0.0015696819217806
 1278    0.0039494054212485
 1279     0.010572260819017
 1280    -0.00010745405142459
 1281    0.0042854867299901
 1282    -0.002432177754563
 1283    -0.00060225003387375
 1284    -0.004356614082398
 1285    0.0017782119075048
 1286    -4.5148880663268e-05
 1287    -0.00023297120332465
 1288    -0.00022546468872351
 1289    -0.00027511987843937
 1290    0.00012716476012163
 1291    -0.00069370867972666
 1292    0.0012921734182832
 1293    -2.8910195177166e-05
 1294    -0.00023613898134652
 1295    -0.00014304877642808
 1296    0.0094289381410399
 1297    -0.0098735738034353
 1298    -0.00066504427124375
 1299    -0.00063832932545481
 1300    0.0007223755690976
 1301    0.0012541983973358
 1302    -0.0049654759717771
 1303    6.4970474734435e-05
 1304    0.00053274247872374
 1305    9.8776371404019e-05
 1306     0.001994986415657
 1307    0.0016016292188609
 1308    -0.00028583294658425
 1309    -0.00015149745283827
 1310    0.00031512917779612
 1311    0.0041108611607645
 1312    -0.0099027697314668
 1313    0.00010573931574132
 1314    -4.2527739900986e-05
 1315    -8.2096975161669e-05
 1316    -0.0027084134452968
 1317    -0.0039428683032371
 1318    -0.00014954708967301
 1319    0.0001621841249265
 1320    -6.2414395196913e-05
 Sym= A
 Ene=               0
 Spin= Alpha
 Occup=    0.00000
   1    -0.0052525829166153
   2    -0.00031853647815755
   3    0.0043129785017615
   4      0.02061015630929
   5      0.12551490290556
   6    -0.013792450882451
   7    -0.026927945629586
   8      0.13315032127682
   9    -0.014588946561238
  10    -0.028777074117722
  11     -0.40187810962595
  12     0.043447644085554
  13     0.088797061412864
  14     -0.59739765673285
  15      0.06865122845186
  16      0.12086527430139
  17    -0.0081188083699018
  18    -0.0037328656985691
  19    0.0036506918976388
  20     0.015064226096724
  21    -0.003851252359831
  22    0.0057984973847601
  23    -0.00021743199509243
  24    -0.00028727034077177
  25    -0.0084853590030712
  26    -0.00060023004799076
  27    -0.0032013082565288
  28    -0.0049361451675117
  29     0.011640890063713
  30     0.010071114192066
  31     0.078820474321717
  32    0.0035157295350563
  33    -0.0078315353916714
  34      0.10604368670209
  35    0.0048215994689725
  36    -0.010988329176299
  37     -0.30146097842057
  38    -0.012529786532314
  39     0.031681599416738
  40     -0.33879908387526
  41    -0.020160792895415
  42     0.030223373727068
  43    -0.0025045567098545
  44    0.0043463675981901
  45    0.00012050533796345
  46    0.0028768939408732
  47    0.00091016202521567
  48    0.0019646933181705
  49     0.010973815372778
  50    3.5588471845988e-05
  51    -0.0036149979359145
  52    0.0034783821719846
  53    0.0041788331532581
  54    0.0052003923070019
  55    -0.010041044541224
  56    -0.014453173906897
  57    -0.013856723605072
  58    -0.0020038702935525
  59    0.0018903541885093
  60    -0.017898885228018
  61    -0.0028865725350964
  62    0.0025800216560331
  63      0.05426002846855
  64    0.0052729627085022
  65    -0.0083251604232764
  66     0.048673040505411
  67     0.015821400471484
  68    -0.0055532288777364
  69    0.0010842881010181
  70    -0.00083135317004145
  71    0.00067674869535885
  72    -0.001037225308928
  73    -0.0034745582890604
  74    3.2011582106328e-05
  75    0.00053084069145569
  76    0.0010135058922132
  77    -1.156879211281e-05
  78    -0.0081589021744331
  79    0.0051946650299066
  80    0.0092694890684935
  81    -0.022166568408218
  82    -0.013942027727694
  83    -0.013449468925498
  84    0.0013690713078678
  85    -0.012984039475779
  86    -0.017811897308206
  87    0.0016123068405261
  88    -0.017336774159591
  89     0.053007461080912
  90    -0.0054515457244285
  91     0.047099700135939
  92     0.052056696673034
  93    -0.0031768977622629
  94     0.059748485209236
  95    -0.0012507456670475
  96    -0.003192432308649
  97    8.5752912362794e-05
  98    -0.00061334069591289
  99    -0.00023721846257024
 100    0.00028212429735514
 101    -0.0085155712788381
 102    -0.0001028167335076
 103    -8.8888002215348e-05
 104    -0.00084016134630894
 105     0.048701332390694
 106      0.10420911992722
 107     -0.24682489225498
 108     -0.15742710000601
 109     0.055397551061864
 110    -0.0019809351637698
 111    -0.0011709383139325
 112     0.076233612115902
 113    -0.0028688339611317
 114    -0.00043819153076945
 115     -0.21921034487974
 116     0.007552761857489
 117    0.0045029337961037
 118      -0.2326253854438
 119    0.0088697285683096
 120    -0.0048854556737826
 121    0.0047662774479433
 122    0.0014911599933378
 123    5.0327690612104e-05
 124    -0.0079195141679791
 125    0.00028364997239012
 126    0.0097609269205878
 127    -0.0029861399810593
 128    -0.00027986708931456
 129    -0.016900150999593
 130    0.0017832134282927
 131    -0.0071796035869499
 132    -0.018450957650057
 133     0.044259471752432
 134     0.026983129704258
 135    -0.014986230416573
 136    -0.011274027954914
 137    0.0053250911605813
 138     -0.01944767448645
 139    -0.015511528883731
 140    0.0074300884097295
 141     0.055846367452189
 142     0.046328613068132
 143    -0.020016692311231
 144     0.058620186047606
 145      0.04584246145552
 146     -0.02342665395372
 147    -0.00023264682325654
 148    -0.00044316944295292
 149    -0.001765095491785
 150    -0.0035694844862695
 151    0.0031204792710976
 152    -0.0013766979598232
 153    -1.7720799379583e-05
 154    -0.0021550076951737
 155    -0.0041769134353134
 156    0.0090704775428332
 157    -0.011006734300653
 158     -0.02756486788352
 159     0.066156921455523
 160     0.037011158876596
 161    -0.013014218126758
 162    0.0054836019086233
 163    -0.018148859820629
 164    -0.016469767116218
 165    0.0069009369863256
 166    -0.024467354690722
 167     0.048409412300475
 168       -0.020677584855
 169      0.07249453646879
 170     0.047019330349088
 171      -0.0191000791195
 172     0.067277951603978
 173    0.0045390056122669
 174    0.0023224868077143
 175    -0.0013624824236657
 176    -0.0019020084265696
 177    0.00016874552857564
 178    0.0050619455006672
 179    0.0086642017923634
 180    -0.0033111977732382
 181    -1.5044712799383e-05
 182    -0.0018443752448727
 183    0.0032839314144171
 184    0.0006032274398981
 185    -0.0044378779132434
 186    -0.0067759768226818
 187    0.0058023802017461
 188    -0.00038386719797735
 189    -0.0091203590525008
 190    0.0064297111501916
 191    -0.00051618413602821
 192    -0.0094843291258571
 193    -0.016765599493912
 194    0.0014345671613421
 195     0.031331046397648
 196    -0.034794985944018
 197    0.0015128023786918
 198     0.040859074979096
 199    -0.0016183886423018
 200    0.00090750143155185
 201    0.00082292481156992
 202    0.00071857366469845
 203    -0.0002491021929239
 204    0.00023009417761264
 205    0.00036988532258394
 206    -0.00024691740036018
 207    -0.00047366562006202
 208    -0.0001155463860961
 209    -0.0040297403222215
 210    -0.0084879009377863
 211     0.021435109761753
 212    0.0081152314083499
 213    -0.00063095223944953
 214    -0.0005220178034045
 215    -0.010882465132603
 216    -0.00067168725477014
 217    -0.00058204961308574
 218    -0.014503382624538
 219    0.00086860014484163
 220    0.0019078818475166
 221     0.042844002734815
 222    -0.0024047945888276
 223    0.0017917577454105
 224     0.043728754241535
 225    0.00026744644215218
 226    0.0028262059901538
 227    -0.0001947212127215
 228    0.00040074822553899
 229    0.00036689947394709
 230    -0.00028185138274804
 231    0.0072914219601747
 232    -0.0004201605689796
 233    0.00083679375079169
 234    0.00068167628654892
 235    0.00021377439143235
 236    4.4383025316157e-05
 237    -0.00029684408517815
 238    0.00061442981088026
 239    -0.00071755352842554
 240    -1.5006472073419e-05
 241    0.00052569375144988
 242    -0.0008143083022701
 243    -4.6768489601005e-05
 244    0.00083205956193556
 245    0.0029236277955907
 246    -0.00025779716989488
 247    -0.0023647796754705
 248    0.0014210449319386
 249    0.00015528403437481
 250    -0.0027745775988566
 251    -0.00030001151855151
 252    -4.0896317214242e-06
 253    2.3542131246625e-05
 254    -6.1921248276077e-05
 255    -0.000165281830722
 256    0.00032059342093051
 257    0.0002177209757321
 258    0.00070813033750797
 259    -0.00011350400824705
 260    -0.00052915442531016
 261     0.002691735730415
 262    0.0066149269158432
 263    -0.015703005511917
 264    -0.0078257448367612
 265    -0.0022148180067748
 266    -0.00030417573588677
 267    -0.0034882095124704
 268    -0.0023622920946703
 269    -0.00051327712884364
 270    -0.0048904274263389
 271    0.0079736299697829
 272    0.0011611377570678
 273      0.01417267693168
 274    0.0050470817518476
 275    0.0020771637249023
 276     0.013586050908447
 277    -0.00044542673299405
 278    -0.00028250315416582
 279    -0.00015565804931234
 280    0.00014633036563698
 281    -0.00019080934527668
 282     -0.00147898703723
 283    -0.00080465684186473
 284    1.0191096142071e-05
 285    -0.00042446865086978
 286    0.00041512830779571
 287    0.0023975412006022
 288    0.0044201316886586
 289    -0.010621386987413
 290    -0.0079089404074134
 291    0.0016462917869688
 292    -0.00017605663422362
 293    0.00072492330036058
 294    0.0022627544347056
 295    -0.00021065540987772
 296    0.0014952999666804
 297    -0.0068998246697463
 298    0.00057819107977331
 299    -0.0029887709616877
 300    -0.0072849552113378
 301    0.00067090269010061
 302    -0.006718427036541
 303    -0.0002120896520139
 304    -0.00030870594150922
 305    0.00014770287728831
 306    -0.00024696476126943
 307    1.549898148302e-05
 308    0.00083655103406379
 309    -0.001208642699744
 310    -0.00027623248361436
 311    -0.00031819365922668
 312    0.00018822808418953
 313    -0.00078192810162238
 314    -0.0018219351794787
 315    0.0045832288479785
 316    0.0025260741796311
 317    -0.00076954992192708
 318    -0.0012684625615071
 319    0.0010428976440211
 320    -0.0011176628330698
 321    -0.001643052390382
 322    0.0012353826649891
 323    0.0027970268374104
 324    0.0050801172614106
 325    -0.0039060837007037
 326    0.0038593649338703
 327    0.0048738237804646
 328    -0.0027814022322838
 329    -0.00030754405122714
 330    0.00013938560223676
 331    -8.2518487899056e-06
 332    -0.00030723886546081
 333    0.00011993417167307
 334    -0.00017297725109895
 335    2.2782920629612e-05
 336    -0.00077904489782939
 337    -0.00042972313397891
 338    0.00058752627326326
 339    -0.0061851370786899
 340    -0.0010588641235866
 341    0.0090828840281014
 342     0.011034179535168
 343     0.086538528860976
 344    -0.016227472742327
 345     0.087258279748928
 346     0.090990091246088
 347    -0.017050081217378
 348     0.091793533995265
 349     -0.28255418283865
 350      0.05128381036465
 351     -0.28537196782364
 352     -0.41058022832033
 353     0.077472925703728
 354     -0.41419645741971
 355    -0.036848719469062
 356    0.00021595376818454
 357    0.0017016637299703
 358     0.021066368170743
 359    -0.0020953471358231
 360     0.015563105733154
 361    -0.00063649002780888
 362    0.00039127317368128
 363    -0.0085788704503603
 364    0.00097983490993411
 365     -0.02740491746831
 366    -0.054684136253336
 367      0.12483462358729
 368     0.093191384581924
 369     0.031246068637064
 370    -0.0030440702898225
 371    -0.007883488891794
 372     0.043370949582259
 373    -0.0040449864684939
 374    -0.010019593884975
 375     -0.12068238873862
 376     0.012688556434542
 377     0.029442002444242
 378     -0.14058837219027
 379    0.0063743910360576
 380     0.028109144038409
 381    -0.0036817705132579
 382    -0.0015887941154784
 383    0.00030171521756216
 384    0.0049282338187044
 385    -0.0017056316619116
 386    -0.0036215025014966
 387    -0.0053637205721134
 388    0.00045110123215501
 389    0.0083651246957298
 390    0.00057888032350527
 391     0.004621682060318
 392    0.0098681906983746
 393    -0.023424617203389
 394    -0.015974173030452
 395    -0.011200433727298
 396    -0.0047346487064669
 397    -0.012110164419852
 398    -0.014418724209948
 399    -0.0065765878633099
 400    -0.015270015193562
 401     0.044209996494387
 402     0.019039136507669
 403     0.046890185587975
 404     0.038658240307458
 405     0.021110522129884
 406     0.040701584701241
 407    -0.0011507824307562
 408    5.3418349930745e-05
 409    -0.003391809530829
 410    0.0019886813013607
 411    -0.0030605595127217
 412     0.002837642606239
 413    -0.00069572009155857
 414    -0.0063674028795883
 415    -0.00072218318560963
 416    -0.0066306070390089
 417    0.0028075113677034
 418    0.0054313329373937
 419    -0.012559349180672
 420    -0.015767399186347
 421    -0.010527608445936
 422    -3.0844192590554e-05
 423     0.076298554917585
 424    -0.014273546846784
 425    -0.00031188875887919
 426      0.10246118279021
 427     0.043066941851478
 428    -0.00087931809413148
 429     -0.29471749633562
 430     0.037042409082732
 431    0.0056603733341196
 432     -0.32449788327492
 433    -0.0039093747751223
 434    -0.0038229371122991
 435    0.00075139921543196
 436    0.0011799048919676
 437    0.00017605177416879
 438    0.0022513321037372
 439    -0.0092027656595282
 440    0.0027256385623778
 441    -0.00049274202998307
 442    -0.00025777461402087
 443    -0.0035124593012465
 444    -0.0073500962318758
 445     0.016923738019265
 446     0.012242610409556
 447    -0.0097384903799115
 448    -0.0034666517223141
 449    -0.0092515611179235
 450    -0.012616590764843
 451    -0.005018114598927
 452    -0.011943052823352
 453       0.0367956819435
 454     0.013904295511533
 455     0.035305985201448
 456     0.036085999829712
 457     0.016119840298862
 458      0.03323796103871
 459    -0.0010053217645662
 460    0.00021851092897884
 461    0.0021684630227666
 462    -4.9304104529739e-05
 463    0.0021915676084193
 464    4.9840891108427e-05
 465    -0.00012431157569156
 466    0.0056321562393553
 467    -0.00093787327301859
 468    0.0060376494774776
 469     0.027677686202592
 470     0.055261877638065
 471     -0.12673354746828
 472    -0.093866363517886
 473    -0.0092614843079018
 474    0.0048012293655803
 475     0.030990205618863
 476    -0.012033144724048
 477    0.0060711702370898
 478     0.043080024590348
 479     0.034965625010284
 480    -0.018821937457216
 481     -0.11974625198301
 482     0.034424959799432
 483    -0.012245275411503
 484     -0.14148773997691
 485    -0.0060638864565706
 486    0.0020603380640625
 487    -0.0020564658709762
 488    0.00075159659556602
 489    0.00023475897706923
 490    -0.0093184673256376
 491    0.0064116646530896
 492    -0.00041760283480409
 493    -0.0011852791850128
 494    0.00020987907136753
 495    -0.015186348970693
 496    -0.0034854979054767
 497     0.023514468893043
 498     0.033326572134814
 499    -0.011463864331654
 500    0.0089110605470393
 501      0.10614361486449
 502    -0.012585275259864
 503    0.0093220547112277
 504      0.11272259849583
 505     0.038876123694861
 506     -0.02847711847832
 507     -0.34091940658208
 508     0.046796545613455
 509    -0.041793742013656
 510     -0.50902932128972
 511    0.0039697513578439
 512    0.0059020910155485
 513    -0.0047014656764989
 514    0.0011395282695366
 515    0.0015553289056586
 516    -0.00017764752811678
 517    -0.00075712521851606
 518    5.0162737611573e-05
 519    -0.00097675305947546
 520    -0.00036175797779883
 521    0.0040036761315694
 522     0.011291375706376
 523    -0.026921253888689
 524    -0.016582203410271
 525    -0.0089770498850949
 526    -0.0027607851645813
 527    -0.012375039492329
 528    -0.011751790864847
 529    -0.0034454073704655
 530    -0.015444596345039
 531     0.035145125528256
 532     0.010501796363629
 533     0.046298042332635
 534     0.033599301255747
 535    0.0092200797828047
 536     0.042040700835147
 537    0.0029316173857258
 538    -0.0024234428169402
 539    -0.00010079528200011
 540    -0.0019855327379877
 541    -0.00090584055583893
 542    2.2295350007326e-05
 543    -0.0078485117663079
 544    -0.0014158691651249
 545    -0.001518177339669
 546    -0.0013773611598647
 547    -0.0019298771428055
 548    -0.0024590291813612
 549    0.0063448271414288
 550    0.00055977091244592
 551    0.00086607766212976
 552    0.00013803806608614
 553    -0.011940342515803
 554    0.0013139347106331
 555    0.00039018708959182
 556    -0.015137555208425
 557    -0.0036192821404062
 558    1.1900369562476e-05
 559     0.047137680778001
 560    -0.0040922924064872
 561    -0.00018074004841383
 562     0.039020461205648
 563    0.0013708806597097
 564    0.0005980666498606
 565    -0.0029597063506916
 566    0.00055337257540122
 567    0.00048397432824004
 568    -0.00027929973337719
 569    -0.00032554609801186
 570    -0.0068537240479201
 571    -0.00010781900564498
 572    0.00029531548782778
 573    -0.037968791668212
 574    -0.078374161321438
 575      0.18521752629395
 576      0.11933128720022
 577    -0.0062583092910732
 578    0.0054088816760527
 579     0.041826325162152
 580    -0.007204861407482
 581    0.0072447142627068
 582     0.057855696610204
 583     0.023717881053088
 584    -0.019724319077881
 585     -0.16410311124813
 586     0.014976838152274
 587    -0.025754738055385
 588     -0.17939536178391
 589    0.0061921015240656
 590    -0.0026979900794429
 591    0.0010751676708286
 592    0.00021616222113193
 593    -0.00054009863499567
 594     0.015042077662838
 595    0.00040348855205538
 596    0.0038870264086759
 597    -0.00055513193024825
 598    0.0010808612289992
 599    0.0022415109269924
 600    0.0062748291786338
 601    -0.012751037796665
 602    -0.015565406467982
 603    0.0014731510668084
 604    0.0038624735180979
 605    -0.015249639048659
 606    0.0022727134524605
 607    0.0053452308032206
 608    -0.019752481775719
 609    -0.0057209137906456
 610    -0.015357905982357
 611     0.057414657071301
 612    -0.007870534057964
 613    -0.020209107927844
 614     0.058163380018533
 615    0.0015297685647535
 616     0.000582443049052
 617    0.0039737860926252
 618    0.0011373150926888
 619    -0.00062658158856689
 620    -0.00049210854027886
 621    -0.0009294615253492
 622    0.0085231347281105
 623    0.00082116532474357
 624    -0.00055062101136473
 625    0.0015902497966365
 626    -0.0018141634573204
 627    -0.029501521569767
 628    0.0036215889189235
 629    -0.0054803956444333
 630    0.0029279091039172
 631    0.0031571512450513
 632    -0.012597956470033
 633    0.0083869643090879
 634    -2.5678987512134e-06
 635    -6.4131349524676e-05
 636    -7.768762230923e-05
 637    -0.00011815341491141
 638    0.0005020801910823
 639    -0.0013911727252587
 640    -0.0061281919756603
 641    0.0085611417756949
 642    0.00034299077620944
 643    0.0030829971838548
 644    -0.0028613083334474
 645    -0.0015727959645053
 646    0.0025155922340225
 647    -0.0030772168484817
 648    0.00018482758012558
 649    -1.2811046530238e-05
 650    0.00054629477211853
 651    8.4385382515295e-05
 652    -0.0003709891444716
 653    -0.0018649609233032
 654    0.0036035785430791
 655    7.380551211031e-05
 656    8.9725544132287e-05
 657    7.8904453839622e-05
 658    0.00088008589414747
 659    -0.00059897120172272
 660    9.9190436271484e-06
 661    0.00012731484273011
 662    -6.5480191748188e-05
 663    -0.014793371938082
 664    -0.0022022180628811
 665    -0.00024516398639428
 666    -0.00058209212386674
 667    0.0013600785888297
 668    0.00050039406910531
 669    -0.0021789597361469
 670    -0.00015368223009528
 671    -0.00044990528729343
 672    7.4505759691167e-05
 673    -0.0031248161109331
 674     0.010850553682386
 675    -0.00052008298434841
 676    -4.2002981637786e-05
 677    0.0003606612342078
 678    -0.0057502534021968
 679     0.023035915409088
 680    0.00057378120428566
 681    0.00034302990249231
 682    0.00011954173213086
 683    0.0030149286035922
 684    -0.0069700943557442
 685    -0.021437887542065
 686    -0.00018412309142503
 687    0.0063633444338246
 688    0.0071862105076119
 689    0.0014453160230366
 690    0.0060664838461402
 691    0.0066682912114204
 692    -0.00024980051282351
 693    -0.00031185605217293
 694    -0.0004424594515603
 695    0.00010791319516935
 696    -2.3012883384348e-05
 697    -0.00027547698740495
 698    -0.0013528909628226
 699    0.0025329804007639
 700    0.0010774770445476
 701    -0.00045247022196381
 702    -0.00045489350443868
 703    0.0003737506994657
 704    0.00029372011930995
 705    0.0071692907434938
 706    8.8571526198115e-06
 707    2.2864775489574e-05
 708    0.00055289747716895
 709    9.7373925262184e-05
 710    2.832773186854e-05
 711    -0.0037371354310793
 712    -0.0033447935955493
 713    -7.5112525025671e-05
 714    0.00035639455377104
 715    0.00079826367238131
 716    -0.00055712917842218
 717    0.0063397987961905
 718    -0.00055475870056551
 719    -0.00056245987135038
 720    0.00044472936908436
 721    -0.0039381207145398
 722    -0.0045624455906287
 723    0.00015180781986481
 724    0.00062904361891444
 725    0.00057362155084945
 726    -0.0088490901482856
 727     0.021053318038046
 728    -0.00078173783562733
 729    -0.00026794865709192
 730    -9.9913822020459e-05
 731    0.00062994139943063
 732    0.0041702607201827
 733    4.1272831445507e-05
 734    0.00013612602743689
 735    0.00027068169474388
 736    -0.00087966803149694
 737    0.0059050360457146
 738    0.00012020375157731
 739    9.2378797952575e-05
 740    -2.8363035508967e-06
 741    5.4678106987236e-05
 742    -0.00033068792402018
 743    -0.0013378539095438
 744    -6.0333555406836e-05
 745    3.770801066657e-05
 746    -8.7755021016854e-07
 747    8.622242981687e-05
 748    -6.3390814723111e-06
 749    2.9893914195599e-05
 750    1.3733268101385e-05
 751    1.105511348373e-05
 752    1.2668055876471e-05
 753    -8.0133185930971e-06
 754    2.6071477331974e-05
 755    -0.00031689312858465
 756    -0.00083424103162807
 757    -0.0016013272254137
 758    0.00030065560387754
 759    -0.00052952849212993
 760    -0.00015053389249212
 761    -0.00029193514954147
 762    0.0014513513168785
 763    0.0011312842432403
 764    -3.2607713833009e-06
 765    -4.9355057489141e-05
 766    -3.6371479374793e-06
 767    -3.2135703857864e-06
 768    -6.4985428914812e-05
 769    -0.0004194627659203
 770    0.0017484819603557
 771    5.3426732128404e-05
 772    8.2427683118049e-05
 773    5.5931059696096e-05
 774    -0.00045674893431255
 775    0.00033081649465079
 776    -6.4177551975736e-05
 777    2.1866789210473e-05
 778    7.3069336604495e-05
 779    -0.00089814593570385
 780    0.00026297571597083
 781    -0.00010888910824847
 782    0.00014469451914573
 783    5.091330277873e-05
 784    7.5781725539497e-06
 785    0.00031147448186387
 786    -2.881691250654e-06
 787    -3.0639043211283e-06
 788    3.5668267619656e-05
 789    -0.00013815872817279
 790    0.00039458074763689
 791    -3.0840073399511e-05
 792    6.527305834134e-06
 793    -1.4973034117214e-07
 794    -5.4633678666993e-05
 795    0.00038988441703986
 796    8.1778957986432e-06
 797    3.3820189742176e-05
 798    -2.3905247137559e-05
 799    -0.00031826371477181
 800    0.0010147543219555
 801    -0.0033880759074072
 802    -0.00092370502158671
 803    2.0811101605303e-05
 804    0.00053559794079336
 805    0.0075016822964226
 806    -0.0018414953776717
 807    -0.0022211570984961
 808    3.8871898829423e-05
 809    9.7089257813196e-05
 810    -0.00021566561491979
 811    0.00014329981769596
 812    0.0005933953767495
 813    -0.000390228820864
 814    -4.1143760774503e-05
 815    -0.0041898208984255
 816    0.0065775667036924
 817    0.0005004708537731
 818    -0.0012297348004286
 819    -0.013238744004848
 820    -0.0056646467371364
 821    0.0045200010569802
 822    0.00064462073467531
 823    0.00072487853412837
 824    -2.3726538874531e-05
 825    -0.00073619783233692
 826    -0.0017632632692572
 827       0.0108437403169
 828    0.0055276691490868
 829    -0.00094754343425703
 830    0.0024997084089452
 831    0.0019647708154648
 832    0.0044339130045741
 833    -0.008216460570748
 834    -0.0028940981046102
 835    0.00066660862583636
 836    0.0011678758208696
 837    -0.0070911473659999
 838     0.010238469207895
 839    -0.0021502174314809
 840    -0.0022581019808513
 841    -0.001722057044393
 842    0.0042432394557427
 843    0.00028578803600857
 844    3.0753075212912e-05
 845    0.00023952027059944
 846    -0.00027620417394651
 847    -0.0019255995731337
 848    -0.00043252357123548
 849    -0.00040675362544786
 850    0.00015406415054087
 851    0.0003637938723852
 852    9.4742446084658e-05
 853    -0.0010473678965616
 854    -0.00061737535501068
 855    -2.5579819847515e-05
 856    1.2097940841635e-05
 857    -0.00067905848726185
 858    0.0022068966361143
 859    0.0053879698738598
 860    -0.00041916817564296
 861    0.00055516890290506
 862    5.1682850783565e-05
 863    0.0036091878550294
 864    -0.0024927831275826
 865    0.0050795283128408
 866    0.00012095817335678
 867    -0.00015878396910539
 868    0.00026647683047818
 869    -1.5868248905671e-05
 870    0.00017140823717491
 871    0.00015360532731307
 872    0.00077098599785491
 873    0.0034894355866915
 874    8.0690265775048e-05
 875    -0.0010838592224919
 876    0.00031304606969374
 877    0.0010290764769385
 878    0.0032553461880263
 879     -0.00273482698336
 880    0.00028511965107946
 881    0.00061379757743743
 882    -0.00020604052534924
 883    9.6232907201972e-05
 884    -0.00033827440352974
 885    0.0063738949416784
 886    6.2660587281983e-05
 887    -0.00090599093412437
 888    0.0010082665731418
 889    -0.0016782306838187
 890    0.0018746471176423
 891    0.00091753461200199
 892    0.00028368648882193
 893    -0.00020246049436515
 894    0.0003400552911513
 895    -0.0027085039901756
 896    -0.0061451993161627
 897    -0.00038650198829519
 898    -0.00020214404269498
 899    -0.0009533658286724
 900    0.00062924814464703
 901    -0.0026958147084405
 902    -0.00030424346931054
 903    5.9329564863643e-05
 904    -0.00018287258241396
 905    -0.0037679850037716
 906    -0.0037058861709202
 907    -0.00015968673190765
 908    -0.00066644084814728
 909    0.00017534062599754
 910    0.0011876328158401
 911    -0.0014357811765855
 912    2.166529831999e-05
 913    0.00046975711272828
 914    -0.00022843206471488
 915    -0.00020903458753809
 916    0.0013961308936722
 917    0.0066709636577597
 918    0.00056712600530506
 919    -0.00031990847725469
 920    -0.0002087561686212
 921    0.0016223323351517
 922    0.00023285516074619
 923    -0.0012416250016974
 924    6.1221769256154e-05
 925    -6.6899847284318e-06
 926    -0.00010488833396914
 927    -7.6358140215833e-05
 928    0.00012579566956198
 929    0.0019195653532151
 930    0.0049940138937616
 931     0.011561528120165
 932    -0.0033866772491528
 933    -0.0050415375951489
 934    -0.0014376380087738
 935    0.0099184369525726
 936    0.0090060155591938
 937    0.0013606589685647
 938    -0.00012569602115059
 939    0.00021877054355224
 940    0.00052319491756521
 941    -0.0001090780291356
 942    0.00017920033333703
 943    0.0036869703676342
 944    0.00046151305230713
 945    0.00024285927606013
 946    0.0004098492750469
 947    2.7506821446155e-05
 948    0.0071627745434911
 949    -0.020013698125983
 950    0.00098470882604424
 951    0.0010598606459899
 952    -0.00016918733404373
 953    0.0035356784853844
 954    -0.0020478351746116
 955    0.00080718549068387
 956    -6.0604621781444e-05
 957    -0.00050963561069395
 958    -0.00054291340623881
 959    0.00021990309950567
 960    8.4386721650563e-05
 961    6.7039482785826e-05
 962    -1.2879144164833e-05
 963    0.00066958014304334
 964    -0.002023499503849
 965    9.8632194247551e-05
 966    -6.7080100330881e-05
 967    0.00012660966873556
 968    0.00033365892771972
 969    -0.00046002475698016
 970    8.7531899935471e-05
 971    6.8751172206965e-06
 972    2.0052634524016e-05
 973    0.0010912822574719
 974    -0.0029622692811261
 975    -0.0009332555286698
 976    -0.0051579962840297
 977    0.0030805656837648
 978    -0.00047237289677319
 979    0.0021958770233023
 980    -0.0032884733021577
 981    -0.0065913727991176
 982    0.00016957425826708
 983    0.00042029484967942
 984    -0.00032034273769082
 985    2.6886841288934e-05
 986    0.00070439119214267
 987    -0.00040014041963584
 988    -0.00015361891238356
 989    -0.0023939155737537
 990    -5.6897998218518e-05
 991    -0.00076806567219928
 992    9.1569547505835e-05
 993    0.0002697703546514
 994     0.011703152025314
 995    -0.0059558182006796
 996    8.2113807017382e-06
 997    -0.0005442033547777
 998    -4.3913591655236e-05
 999    -0.00016173150059084
 1000    -0.00047399021510499
 1001     0.010158929808978
 1002     0.013157139350592
 1003    -0.0004529402924069
 1004    -0.00077410655217964
 1005    0.00056342653521172
 1006    -0.0028371717218663
 1007    -0.00016076147637099
 1008    -0.00075322668108281
 1009    0.00074193378475571
 1010    -0.00069974875585846
 1011    -0.003534619533964
 1012    -0.0052420164704288
 1013    -0.00054591269495646
 1014    0.00092209574416255
 1015    0.00024203968929912
 1016    -0.010221908561888
 1017    -0.0034184136722664
 1018    1.6331346815541e-05
 1019    -3.5760343403085e-05
 1020    -0.0015444816485592
 1021    -0.0029373197482657
 1022    0.0046400759194275
 1023    -0.00019909116859259
 1024    0.00028380862124666
 1025    0.00072202128885174
 1026    0.0013673886696578
 1027    -0.0041288970427353
 1028    -0.00047585600671223
 1029    9.6537719490594e-05
 1030    0.0001283483589137
 1031    0.00036401681210761
 1032    -0.001826872517629
 1033     0.004069541065544
 1034    -0.0004501891089322
 1035    -0.00030665961747569
 1036    0.00097615151342427
 1037     0.004694533285261
 1038    -0.0043847352649169
 1039    0.0017065408272136
 1040    4.793341308666e-05
 1041    0.0001004196639423
 1042    -0.00015205917805535
 1043    2.5197231201595e-05
 1044    -4.128853116967e-05
 1045    -0.00022609777572419
 1046    -0.00050315111694783
 1047    -0.00010356472070206
 1048    -0.0010522089126652
 1049    -0.00085633950439914
 1050    -0.00051657684695045
 1051    -0.00027200788374545
 1052    0.0029807236056666
 1053    -0.0014019678721934
 1054    -2.1659718794524e-06
 1055    -4.7023181949527e-05
 1056    -2.9007106461809e-05
 1057    1.3259422342093e-05
 1058    -3.6850299374637e-05
 1059    -0.0014611915375528
 1060    -0.00018361945884543
 1061    -0.00015673660668234
 1062    0.00032665276065731
 1063    2.0188840208534e-05
 1064    0.0014296804303659
 1065    0.0012857584687008
 1066    0.00011143341306372
 1067    -0.00017625233279228
 1068    -5.4316488561374e-05
 1069    0.0015102519069734
 1070    -0.00099273655382584
 1071    -0.00010446561093287
 1072    -8.4310693189481e-05
 1073    -0.00012259549151682
 1074    -0.00097134154026799
 1075    0.0022873927320514
 1076    -0.001327871136141
 1077    -8.8589514335137e-05
 1078    0.00037083588612897
 1079    -0.0011551823883474
 1080    -0.0097590964245769
 1081    0.00078976306045499
 1082    0.00023178011582238
 1083    -0.00072544835874125
 1084    -0.00092587188438584
 1085    0.0022819034272343
 1086    -0.00010502591260086
 1087    -5.1825661754164e-05
 1088    5.1087075840193e-05
 1089    -0.0015335348502162
 1090    0.0042507641250933
 1091    0.0090374814890771
 1092     0.004981042154796
 1093    -0.0021787517355309
 1094    0.0011753118726772
 1095    0.0020224480951061
 1096    0.0018575414318174
 1097    0.0060361165072826
 1098    -3.4459998996187e-05
 1099    0.00023316859849623
 1100    9.9830515200763e-05
 1101    6.3103407434218e-05
 1102    7.3254200486169e-06
 1103    0.00082720594964814
 1104    0.0027229580277466
 1105    0.0026096915976051
 1106    -0.0013972948930238
 1107    0.0023085007166224
 1108    0.00058594011674859
 1109    0.0025397802787982
 1110    -0.00046826858423584
 1111    0.0011528174029624
 1112    -9.1496338935576e-05
 1113    -0.00022278566958862
 1114    0.00018084454077959
 1115    -0.00032383716942064
 1116    7.4120841857804e-06
 1117    0.0080751981429097
 1118    -0.001357433974069
 1119    0.00075434671193593
 1120    -0.00055704059528618
 1121    -0.00056832203317127
 1122    0.00058612726007438
 1123    0.0028127582167098
 1124    0.00017012345660575
 1125    -7.9512102247053e-05
 1126    0.00029860104586196
 1127    0.00074098364275674
 1128    -0.0041598621720653
 1129    0.00013763120256303
 1130    0.00040092310611833
 1131    -0.00022733411449616
 1132    0.0013561995015509
 1133    -0.0034376109755428
 1134    8.9972248505031e-06
 1135    -0.00026744155820306
 1136    -0.0001828977734084
 1137    -0.0028288857976273
 1138    -0.0039355687407363
 1139    0.00018751077646452
 1140    0.00019911834463992
 1141    -4.017667597767e-05
 1142    0.0049083041120435
 1143    -0.0093166297106323
 1144    -0.00018717183245276
 1145    0.00017103592481881
 1146    -1.986828898916e-05
 1147    -7.165636225424e-05
 1148    0.00031347162069751
 1149    0.0013783015784421
 1150    0.00031240589218065
 1151    3.8853363129104e-05
 1152    0.00052101113967984
 1153    0.0011266468293788
 1154    5.8597124623424e-05
 1155    0.0014856075391902
 1156    7.0497768232769e-05
 1157    -1.1480891670893e-05
 1158    -4.4594347217479e-05
 1159    -3.6851932925171e-05
 1160    -5.7632542151619e-05
 1161    0.00015384760965999
 1162    0.00044560263326381
 1163     0.001297648075331
 1164    -0.003876747005019
 1165    0.00025643195904256
 1166    -0.0047884266384959
 1167    0.0052855781969528
 1168    0.0002825357530866
 1169    0.0075448261610897
 1170    0.00022971753043151
 1171    1.9924106977069e-05
 1172    0.00021248529150894
 1173    -8.2145311121622e-05
 1174    0.00028172388918313
 1175    -0.0026454515823148
 1176     0.015552238128167
 1177    0.00026049843224905
 1178    -9.6169942793692e-05
 1179    -0.0002549039600813
 1180    0.0010349856920539
 1181    -0.0017989741249449
 1182    0.00025818946318689
 1183    1.9237588530797e-05
 1184    0.00054867512498453
 1185    0.0040858697924249
 1186    -0.016671830649307
 1187    -0.00025319769447418
 1188    0.00028803980190439
 1189    0.0005547532674022
 1190    -0.00020666803791116
 1191    0.0019960486458751
 1192    6.116345569067e-05
 1193    0.0001870555613439
 1194    0.00012452498063444
 1195    0.00032435528790567
 1196    -0.0026945991517334
 1197    0.00012922047234299
 1198    -0.00020185769637116
 1199    0.00010604135549618
 1200    2.0902479586346e-05
 1201    -0.00018373972340718
 1202    -6.0148598610436e-05
 1203    2.1684423672437e-05
 1204    -4.7126526511587e-05
 1205    -0.00023118599157919
 1206    0.00094256907798657
 1207    0.0066190933880577
 1208    -0.00020904453145207
 1209    2.5005736665474e-05
 1210    -0.00090462030887745
 1211    -0.0012657307072792
 1212    0.0020254504153875
 1213    0.0055909135381332
 1214    -0.00020844547724146
 1215    -5.2169775212696e-05
 1216    0.00043615795911415
 1217    -0.00015369344459509
 1218    -0.00023827050951694
 1219    0.0010882090074926
 1220    0.0017294687982028
 1221     0.010812926414318
 1222     -0.00072859606736
 1223    -0.0010286001468746
 1224    0.0053288579785864
 1225     0.003337630650137
 1226    0.0083677468730027
 1227    -0.011909126451122
 1228    0.00078009266016828
 1229    -0.000717842326358
 1230    -0.0013825823877814
 1231    0.00021751654941933
 1232    0.00011753797193394
 1233    -0.00019582477647795
 1234    0.0041583637515026
 1235    0.00055033052306735
 1236    -0.00017335047467585
 1237    -0.0027364027780493
 1238    -0.008143827400071
 1239    -0.0098197425084232
 1240    0.0016895757968584
 1241    -0.0020031600917385
 1242    -0.00014143971246413
 1243    0.0067892962887413
 1244    -0.013894002006193
 1245    -0.0015038038391516
 1246    0.0018791325378792
 1247    -0.002452000362185
 1248    -0.0029598768019514
 1249    -0.00057250351546143
 1250    -0.00036656770155894
 1251    -0.00016194056953246
 1252    -5.2941042431615e-05
 1253    -0.00060855140120575
 1254    -0.00062074321900593
 1255    0.00012608850925696
 1256    9.6078545314077e-05
 1257    -0.00056372293803453
 1258    0.0024287189822602
 1259    -0.0010760065181875
 1260    0.00021994394890343
 1261    -0.00022227920697145
 1262    -0.00031719753532302
 1263    -0.0013111103599873
 1264    0.0032508541232609
 1265    0.0040259145296742
 1266    -0.00054292940972552
 1267    -0.0043083035560119
 1268    -0.0040882130425194
 1269    -0.0060536329289995
 1270    0.0014387811742805
 1271    0.0011508308830714
 1272    7.7033906338666e-05
 1273    -0.0002217969193984
 1274    0.00061209925364903
 1275    -0.00020098572499524
 1276    -9.2290548898392e-05
 1277    8.2888203456562e-05
 1278    6.5493916670882e-05
 1279    -0.0016900536587931
 1280    -0.00082872163391401
 1281    0.0013192260844898
 1282    -0.0011043235114571
 1283    -0.00074507245020764
 1284    -0.010765668687087
 1285    0.0039903924207703
 1286    3.058214831571e-05
 1287    0.00024744839417198
 1288    -0.00020835900534884
 1289    -8.1872618165139e-05
 1290    -8.9749175527027e-05
 1291    0.0026401456359398
 1292    0.0053000745954315
 1293    -0.00018684594114288
 1294    -0.00048149192943141
 1295    -0.00049095938534626
 1296    -0.0077698823457688
 1297    -0.013492424253361
 1298    0.00069115604843642
 1299    0.00074907992025773
 1300    3.0413371100937e-05
 1301    0.0027787039950082
 1302    0.0044540912045679
 1303    -0.00013886452130499
 1304    -0.00062397120384063
 1305    -0.0004557717959689
 1306     0.010421981619834
 1307    0.00058261012569911
 1308    -0.0013436612693109
 1309    -0.00022640823224743
 1310    1.7044016560224e-05
 1311    0.00019429650686592
 1312    0.0019634587545979
 1313    4.9737067980474e-05
 1314    4.3244958247338e-05
 1315    -0.00046332581784448
 1316     0.001600163295772
 1317    -0.0047579351503915
 1318    0.00073167885148926
 1319    -0.0001414147318237
 1320    -0.00020513757096477
 Sym= A
 Ene=               0
 Spin= Alpha
 Occup=    0.00000
   1    -0.0018633677406726
   2    -0.00069274161823593
   3    0.0045212527841542
   4    -0.0040759926441202
   5    -0.098320766619062
   6    0.0067582823592219
   7     0.028784236094008
   8     -0.10431838606374
   9    0.0072077129979848
  10     0.030765659750146
  11      0.31731674127514
  12    -0.021232675000501
  13    -0.093567972515711
  14      0.47539147932926
  15    -0.034187545461317
  16     -0.13267855232512
  17    0.0037005477023263
  18    0.0017458048303949
  19    -0.0031346857478483
  20    -0.0078363640203634
  21    0.0036209914327072
  22    -0.0034670975932418
  23    -0.0012254724692933
  24    5.7465996726634e-05
  25    0.0059446059806292
  26    0.00061391880653402
  27    -0.0041481748901607
  28    -0.013190674774379
  29     0.027594242714459
  30     0.036769086097503
  31    -0.072567599167855
  32    -0.0039583062482694
  33    -0.014163073192415
  34    -0.098014638384159
  35    -0.0051899543116859
  36    -0.018549466694436
  37      0.27976363319505
  38     0.015240615506088
  39     0.057996983042461
  40      0.32833722557457
  41     0.015513282632037
  42     0.049038744826692
  43    -0.0024938760035517
  44    0.0015993067583091
  45    -6.2799121903412e-05
  46    0.0022985248245319
  47    -0.00061150309467031
  48    -0.0015688057049373
  49    0.0035046229903167
  50    -0.0013263370028985
  51    0.0027094133966754
  52    -0.0012963329520467
  53    -0.0024865731002465
  54    -0.0021995760383763
  55    0.0044216182253497
  56    0.0057515741453805
  57    0.0099812151981365
  58    0.00044815795652263
  59    -0.0023346442370554
  60     0.012973446117275
  61    0.00057632329600425
  62    -0.0031537712379639
  63    -0.039793597889647
  64    8.3198821192281e-05
  65     0.010069436277779
  66    -0.035146636466039
  67    -0.0053649778521299
  68    0.0076328335460316
  69    -0.00091822147654963
  70    0.0005505845830401
  71    -0.0007578261854341
  72    0.0013043669637895
  73    0.0022992928635175
  74    0.00023196567829974
  75    -0.00038087559884884
  76    -0.0014275253975337
  77    -6.4061441320375e-05
  78    0.0069587825034796
  79    -0.0041694724312523
  80    -0.0063613638452329
  81     0.016107128551959
  82    0.0061840440672108
  83    0.0099747786433839
  84    -0.0010972895926219
  85     0.015442851879769
  86      0.01329789644876
  87    -0.0013944170602701
  88       0.0204207199446
  89    -0.041056471118714
  90    0.0042736994792264
  91    -0.059191090830068
  92    -0.036362481976839
  93    0.0038368219006655
  94    -0.065680707705091
  95    0.00028278317206979
  96     0.002525132079507
  97    0.0002670200882889
  98    0.00091232659700532
  99    0.00021495266847043
 100    4.1048709010133e-05
 101    0.0075997976718144
 102    0.0010649239469126
 103    -0.00036751090757144
 104    0.0005844679834811
 105    -0.038005861277381
 106    -0.082531834747976
 107       0.1961290164025
 108       0.1219767712431
 109    -0.042738992878783
 110    0.0022867813278406
 111    -0.00059068185254914
 112    -0.059009238022172
 113    0.0031556498142425
 114    -0.0016668500849805
 115      0.17103223904444
 116    -0.0086615011244766
 117    0.0018438361710201
 118      0.17810452944161
 119    -0.0095024630218958
 120     0.010002822299646
 121    -0.0036444579584197
 122    -0.00074801186783434
 123    -3.298420402515e-05
 124    0.0058710731542389
 125    -0.00036472895449468
 126    -0.0080088223243546
 127     0.002786175796476
 128    0.0001785917430126
 129     0.013958548948965
 130    -0.0018622154029974
 131    0.0042425005659755
 132     0.011373027573705
 133    -0.028640353734581
 134    -0.014211392148794
 135     0.011847498091556
 136    0.0070887861909189
 137    -0.0049961078560171
 138     0.015372018905493
 139    0.0096786199871251
 140    -0.0070920942817027
 141    -0.044921802112857
 142    -0.029646822419897
 143     0.018861393032153
 144    -0.044305695683031
 145    -0.027711834454096
 146     0.023039955258253
 147    -7.2805261519931e-05
 148     0.000353920805478
 149    0.0015515751274262
 150    0.0027319537588388
 151    -0.0023277770804122
 152    0.00077192900153855
 153    3.0025816777012e-06
 154    0.0023700950166287
 155    0.0027002991381991
 156    -0.0075306630319357
 157     0.011900433994153
 158     0.028098089381281
 159    -0.068635304622963
 160     -0.03714108295915
 161    0.0097315587557713
 162    -0.0045535682850102
 163      0.01629244352345
 164      0.01177552260431
 165    -0.0058140008399041
 166     0.022251640066452
 167    -0.036980774614162
 168     0.017041444640566
 169    -0.066278301047322
 170    -0.029069999062921
 171     0.016848383628613
 172    -0.063323556539488
 173    -0.0041070858966827
 174    -0.001068666953519
 175    0.0011118782549077
 176    0.0013310763849179
 177    -0.00016315210978218
 178    -0.0049449487527471
 179    -0.0069087513348311
 180    0.0026716729303301
 181    0.00053961368859032
 182    0.0015853718950615
 183    -0.0071879033581423
 184    -0.0016250144456935
 185     0.015165396012815
 186    0.0033798888538977
 187    -0.013302091798682
 188    0.0013078767940677
 189     0.017545078972826
 190    -0.014306685835612
 191    0.0016139648861712
 192       0.0188588297729
 193     0.043192649775292
 194    -0.0037260344017241
 195    -0.056236398177187
 196     0.065949962858905
 197    -0.011538227671703
 198    -0.091540321634915
 199    -0.00045422218447584
 200    -0.0033932045994535
 201    -0.0011862513679236
 202    0.0010438499797058
 203    0.00073731008732891
 204    0.00032480204425563
 205    -0.0017384835191099
 206    -7.4672760556581e-05
 207    -0.0012572057050744
 208    -0.00059085801037957
 209    -0.0054821825956499
 210    -0.0098380439955563
 211      0.02649493610081
 212    0.0042272669037129
 213    -0.014861072302201
 214    -0.0013698321201542
 215    -0.012128364679014
 216    -0.019446709266604
 217    -0.0019196857820012
 218    -0.016153536261907
 219     0.058921106228936
 220    0.0051041615438566
 221     0.049746809627988
 222     0.052162003496294
 223    0.0072843713308128
 224     0.046163059117986
 225    0.0011519739604449
 226    0.0030157888425662
 227    -0.00014191692168663
 228    0.00014150115643209
 229    7.3595131561237e-05
 230    -0.00070781991409403
 231    0.0081116246535597
 232    -0.0011470890488247
 233    0.00097788626279074
 234    -0.00027509828538831
 235    -0.00081638609095322
 236    -0.00076957465482904
 237    0.0015359867153819
 238    0.0022792846166776
 239    0.00097485601075766
 240    0.00019577241234601
 241    -0.0014046838037019
 242    0.0012776115280002
 243    0.00027966241227069
 244    -0.0019713721080617
 245    -0.0043233308901008
 246    -0.00025933728738842
 247    0.0059390524452737
 248    -0.0030485242038246
 249    -0.0018812524389371
 250    0.0061259103364992
 251    0.00025293857911148
 252    1.6963435258481e-05
 253    -0.00025310789346224
 254    0.00037438423669928
 255    0.0002223700226948
 256    -0.00018342087346163
 257    -0.0005708103353872
 258    -0.0014926541209254
 259    -0.00038192335601038
 260    0.0010688959774869
 261    -0.0068450739336365
 262    -0.014200518009673
 263     0.033975113214661
 264     0.021951018264854
 265    0.0020438551371748
 266    0.00081816913575774
 267    0.0063886388338863
 268    0.0031492224273268
 269    0.00073867745814708
 270    0.0087682869473399
 271    -0.0077610572512475
 272    -0.0032659552584871
 273    -0.026275690769666
 274     -0.01222802161248
 275    0.00043057128055775
 276     -0.02677715622331
 277    0.00068193459934688
 278    0.00064028534563486
 279    0.00023255923857213
 280    0.00034444876945717
 281    0.00024185057672846
 282    0.0030019419647362
 283    0.0019138001173874
 284    7.7419630252845e-05
 285    -0.00054864320948575
 286    -0.00032313266347595
 287    -0.0050522044914831
 288    -0.0098962695478855
 289     0.024489914699858
 290     0.013275778369348
 291    -0.0042365458030069
 292    0.00040397045807879
 293    -0.0026152131280393
 294    -0.0057420499743861
 295    0.00039357325921278
 296    -0.0038401002487603
 297     0.017424552552628
 298    -0.0015536971085186
 299    0.0097970935063731
 300     0.017008827917717
 301    0.00014588642022689
 302     0.014289554483221
 303    0.0001247884279834
 304    0.00069198785817713
 305    -0.00029433703483953
 306    0.00047390932433285
 307    -9.6439376774157e-05
 308    -0.0013863155319722
 309    0.0023713544779492
 310    0.00053532138270042
 311    0.0015254273165381
 312    -2.4861885459352e-05
 313    0.0012718341060981
 314    0.0036087015783303
 315    -0.007641270157838
 316    -0.0088308443697403
 317    0.0014230079041807
 318    0.0023425717964876
 319    -0.0020764733202601
 320    0.0016873808449735
 321    0.0032167238741512
 322    -0.0025873972655357
 323    -0.0053696141558681
 324    -0.0095826344388046
 325    0.0078193042551635
 326    -0.0042667762702854
 327    -0.011655939351403
 328    0.0069471258651115
 329    0.00049824818840614
 330    -0.00011190526950524
 331    0.00016012537438681
 332    0.00082563637778951
 333    -7.6133730079808e-05
 334    0.00057043983500181
 335    -0.0002963298838163
 336     0.001577361566876
 337    0.00071839786081236
 338    -0.0010966671577173
 339     0.079136259778937
 340     0.015365571036808
 341     -0.11791165116724
 342       -0.171002919819
 343    -0.086439635218691
 344     0.028297823136693
 345      0.10540984827185
 346    -0.091264627084808
 347     0.030040283054784
 348      0.11147058778546
 349      0.28084456013717
 350    -0.092080745885203
 351     -0.34329303564131
 352      0.42639809494155
 353     -0.13120255023935
 354     -0.52354534578975
 355    -0.013073802769918
 356    0.0095684031907554
 357    0.00060167755923721
 358    -0.017946951085551
 359    0.0023308314498343
 360    0.0055371567942363
 361    -0.0032643517270414
 362    0.00078451784959089
 363    0.0080561535763243
 364    -0.0014906305319394
 365     0.025770788079564
 366     0.052417057200119
 367     -0.12200454548293
 368    -0.079439676227465
 369    -0.027553710854191
 370    0.0018773009690001
 371    -0.013332117201895
 372    -0.038687202851634
 373    0.0021006958045872
 374     -0.01638804310649
 375       0.1094861296863
 376    -0.0076898189123343
 377     0.049910828841145
 378      0.11436483659733
 379    -0.00051452805092327
 380      0.04447439405395
 381    0.0010905231401543
 382    -0.0029773346869089
 383    0.0015808540214874
 384    -0.0029470911314485
 385    0.00083885214411758
 386    0.0051625795297364
 387    -0.0080569742616847
 388    -0.0023038876166708
 389    -0.0086310097594318
 390    -0.0010295900993458
 391    -0.0087453565320018
 392    -0.019511620834859
 393     0.040300652913915
 394     0.051805914520568
 395     0.012315740842579
 396     0.012135916393828
 397    -0.014765752244831
 398     0.015547859952949
 399     0.016449124014332
 400     -0.01854670707614
 401    -0.048209019818653
 402    -0.045894408710461
 403     0.057322587015084
 404    -0.041390959353682
 405     -0.06759469679679
 406     0.049373995040917
 407    -0.0033154935417481
 408    0.00028635698445365
 409    -0.0034598530517346
 410    -0.0052021382524068
 411    0.0028819501003364
 412    0.00053673367341572
 413    -0.00042662544473907
 414    -0.0090872162421698
 415    0.00052159854281715
 416    0.0077882440999797
 417    -0.0030448637243188
 418    -0.0086934168717796
 419     0.018426047986295
 420     0.026103507190097
 421     0.010491196370233
 422    -0.0064003153464519
 423     0.089722517218085
 424     0.013435834388744
 425    -0.008810997001026
 426      0.12093733505473
 427    -0.043780229978862
 428     0.024441340772866
 429     -0.34813304625273
 430    -0.032190984931547
 431     0.030049633288318
 432     -0.40287262491245
 433    0.0027952732706111
 434    0.0003068774345762
 435    -0.00082990450384009
 436    -0.00076566443773112
 437    2.0423776845704e-05
 438    0.0011630211067683
 439    0.0021775386013527
 440    -0.00013794969744733
 441    -0.00028647323181094
 442    0.00039685058669288
 443    0.0063779790456978
 444     0.014158811158825
 445    -0.037938706759696
 446    -0.0048472119153301
 447     0.009306863028766
 448     0.006451969153128
 449    -0.010407700139569
 450     0.012279191953702
 451    0.0087751339269888
 452    -0.013940447799626
 453    -0.035470036666167
 454    -0.027763864289857
 455     0.039944046645886
 456    -0.038386943331093
 457    -0.010684012396315
 458     0.044793549748418
 459    -0.00058951380459466
 460    -0.0006593687950995
 461    0.0025650239987022
 462    -0.00089617437487911
 463    -0.0020896673613048
 464    0.0017787400871027
 465    0.0025572102884131
 466    0.0075702196609804
 467    0.0021776108817781
 468    -0.0065898872862879
 469     0.032819037897817
 470     0.067765989397849
 471     -0.15655704185319
 472     -0.10725137132386
 473     0.011155352326206
 474    0.00062260573039378
 475     0.035961289192423
 476     0.013426620959173
 477    0.00039467707020573
 478     0.050376825238689
 479    -0.041754172040761
 480    -0.0031023957421533
 481      -0.1428906600397
 482    -0.034571895742661
 483    0.0059608427139204
 484     -0.15210090092872
 485    -0.0046415485567231
 486    -0.0026873897066635
 487    -0.00084183803295693
 488    -0.00041125201644851
 489    -0.0013516708575383
 490     -0.01350823901275
 491    -0.0059985552414406
 492    0.0025483332149417
 493    0.00026955170200348
 494    0.0027493280040161
 495    -0.019526946483172
 496    -0.0041153749381914
 497     0.027406198529423
 498     0.047997189974231
 499    -0.031804228364942
 500     0.013945665833779
 501      0.11105768001823
 502    -0.034329843750818
 503     0.014642660593345
 504      0.11784371189219
 505      0.10378441058381
 506      -0.0445041501334
 507     -0.36051514532702
 508      0.14484584708123
 509    -0.063906646985186
 510     -0.54045032314534
 511    0.0094193304679215
 512    0.0036773375410062
 513    -0.0043144302157169
 514    -0.00094439202994453
 515    0.0032237559543478
 516    -0.0016713993069474
 517    -0.0017259069324975
 518    1.138921856417e-05
 519    3.4854340198319e-05
 520    -0.00032201403837926
 521     0.011237013588428
 522     0.025786807778481
 523    -0.061657109822364
 524    -0.038917137130124
 525    -0.015529267967786
 526    -0.005211188961677
 527    -0.012204101472968
 528    -0.021118608150748
 529    -0.0066850560929748
 530    -0.014733323078826
 531     0.061690996257936
 532     0.019461112703313
 533     0.046336646171799
 534     0.065067432706025
 535     0.019580450014076
 536       0.0361466565493
 537    0.0034784078414584
 538    -0.0015935172378413
 539    0.00017686910719948
 540    -0.0031121290785151
 541    -0.0014531978374583
 542    0.0018146118187622
 543    -0.0085882740467114
 544    -0.0019599793177896
 545    -0.0031563824823749
 546    -0.002623788670509
 547    -0.004138073213477
 548    -0.0067499495810132
 549     0.018668025277197
 550    0.0020906076013387
 551    0.0025989392088177
 552     0.002074627896697
 553    -0.012188546680877
 554    0.0036055345547166
 555    0.0028970172487826
 556    -0.015672340361057
 557    -0.010734992467629
 558    -0.0082903316177544
 559     0.048702846701334
 560    -0.010449395553134
 561    -0.0052403296660133
 562     0.041029752782081
 563    0.0016339628814676
 564    0.00061866132893926
 565    -0.0029732762897498
 566    6.2615389647234e-06
 567    0.00090012404505038
 568    -0.0010665704845766
 569    -0.00052099538586538
 570    -0.0078655136803011
 571    -0.00045943092295533
 572    0.0015565370408447
 573    -0.040350166166653
 574    -0.084657841451441
 575      0.20117798247622
 576      0.12493165864558
 577    -0.0034133189378485
 578    0.0050502447572162
 579     0.044379519636731
 580    -0.0035429882847096
 581    0.0068048640641729
 582     0.061497383512503
 583     0.013719182318392
 584     -0.01855050957048
 585     -0.17618242595925
 586    0.0035697674628453
 587    -0.024876987529672
 588     -0.18759621876192
 589    0.0066475937477993
 590    -0.0021213885299677
 591    0.00091508498772843
 592    2.6228287102581e-05
 593    -0.00046351180583508
 594     0.016682543524802
 595    0.0016660842523379
 596    0.0041252132209161
 597    -0.00049633754681673
 598    0.0013758834681326
 599    0.0042317509085702
 600     0.010161790953625
 601    -0.022020413023884
 602    -0.021934012574086
 603    0.0045226702291706
 604    0.0055960060043746
 605    -0.015736083303222
 606    0.0064687838634682
 607    0.0077913300201149
 608    -0.020294461825026
 609    -0.017330268806548
 610    -0.022282179608074
 611     0.060078502350464
 612    -0.020434345454174
 613    -0.028959362300283
 614     0.058019430600862
 615    0.0019808241978651
 616    0.00052218155735405
 617    0.0038739737765119
 618    0.0014126534151427
 619    -0.0015475279260295
 620    -0.00039117562609528
 621    -0.00091193175806067
 622    0.0093711144102438
 623    0.0013274640041152
 624    -0.0020627755797498
 625    -0.0013037859480962
 626    0.0013938555653185
 627      0.02308877926891
 628    -0.0025127546309822
 629      0.00398468455122
 630    -0.0028761792366341
 631    -0.0021750807983032
 632     0.009987273885827
 633    -0.007376011282359
 634    -4.9643846536779e-05
 635    -1.0161231449786e-05
 636    2.1490129989661e-05
 637    9.6228464162892e-05
 638    -0.00044347068991697
 639    0.0014407584304936
 640    0.0059903016636771
 641    -0.0070434432425678
 642    -0.00042666073637167
 643    -0.0032990524541323
 644    0.0022668768833489
 645    0.00072450460238773
 646    -0.0031393631440971
 647    0.0014766572931288
 648    -0.00013027580250847
 649    3.4627688701694e-05
 650    -0.00041738323576264
 651    -9.2885612131083e-05
 652    0.00031935194032507
 653    0.0022416561283069
 654    -0.0033740510226403
 655    0.00012370123318972
 656    -1.1790765589873e-05
 657    -6.2798056068416e-05
 658    -0.00076327055950234
 659    -0.00048205142107668
 660    -6.1573707225152e-05
 661    -6.0926780853674e-05
 662    0.00013142973225764
 663      0.01292349492113
 664    0.0027494810245322
 665    0.00017747580501162
 666    0.00034875868270655
 667    -0.0011620599659737
 668    -0.00019867806118121
 669    0.0021120162081241
 670    0.00016231199186431
 671    0.00037006750980938
 672    -7.9277569146874e-05
 673    0.0030326660748541
 674    -0.0089826632489312
 675    0.00038449889659513
 676    4.8285986264042e-05
 677    -0.00025933098555577
 678    0.0046822149104219
 679    -0.018636903465089
 680    -0.00048655777394087
 681    -0.00028464984402233
 682    -0.00012359391068359
 683    -0.0025352276180612
 684    0.0059659183525642
 685     0.017392604304536
 686    0.00011558029181814
 687    -0.0053842519277078
 688    -0.0048207439471654
 689    -0.0017472598399523
 690    -0.0050338094041911
 691    -0.0042514510616403
 692    0.00022371277231003
 693    0.0002785410928675
 694    0.00037384662938543
 695    -8.2395857972899e-05
 696    2.6573140283941e-05
 697    0.00039969356946247
 698    0.0012841073299779
 699    0.00035116516033279
 700    -0.0010818362028535
 701    0.00061478833500677
 702    0.00036064244306778
 703    0.00031435938401452
 704    -0.00047081458534893
 705    -0.0061535713547433
 706    -4.5283965781227e-07
 707    -5.5623548945951e-05
 708    -0.00052613091502879
 709    -8.0122904776616e-05
 710    -2.2362099823174e-05
 711    0.0028393068567258
 712    0.0011775095729852
 713    8.0637452020228e-05
 714    -0.00029893684886069
 715    -0.00077685661224114
 716    0.00015646669366613
 717    -0.0055543956516816
 718    0.00043994588055405
 719    0.00051254458898701
 720    -0.00037535478302419
 721    0.0030539104827405
 722    0.0030335413925938
 723    -0.00015595235484083
 724    -0.00050725859381359
 725    -0.00045093422810147
 726    0.0070906272542026
 727    -0.016475596105477
 728    0.00064107537369654
 729    0.00018039478160749
 730    5.6959359547352e-05
 731    -0.0006490235736888
 732    -0.0034753023994155
 733    -2.2497972857831e-05
 734    -0.00010210728725832
 735    -0.00018800014837806
 736    0.0012235927738654
 737    -0.0056154784806832
 738    -9.7445125724452e-05
 739    -5.8617337660664e-05
 740    -5.7519267754005e-06
 741    -8.2393102306818e-05
 742    0.00043627591476719
 743    0.0034722327489178
 744    2.5624669689982e-05
 745    3.901540512382e-05
 746    -8.4659681515728e-06
 747    0.00011443217424544
 748    -0.00051694927620972
 749    -4.1552415334233e-05
 750    9.0139765799595e-06
 751    -5.5705422452616e-05
 752    2.6960600379806e-05
 753    6.0570509339773e-06
 754    -2.2734167845468e-05
 755    0.00068723766535749
 756     0.001435320103945
 757    0.0053195779730092
 758    -0.00068824790690768
 759     0.001149032920095
 760    0.00035698863243416
 761    0.0019729137009761
 762    -0.0039716560437543
 763    -0.0015025989219513
 764    -2.0051613730976e-05
 765    0.00015486235393134
 766    -8.8070780013994e-05
 767    9.3831242932165e-06
 768    5.2616150102196e-05
 769    0.0011319196261854
 770    -0.0032556687658132
 771    -0.00012990625325674
 772    -0.000193962834521
 773    -0.00015806472182345
 774    0.0008778266901899
 775    -0.00051559383968153
 776    9.6222855598018e-05
 777    -2.1129136777119e-05
 778    -9.4182311924299e-05
 779    0.0014731004613807
 780    -0.004331757203348
 781    0.00021245148999063
 782    -0.0002004880530275
 783    0.00011204713410396
 784    0.0001482751393954
 785    -0.00053853263074662
 786    2.4714905825754e-05
 787    1.3533282700491e-06
 788    -2.6317264945931e-05
 789    0.00015323484799979
 790    -0.0007133607435685
 791    2.8278827134724e-05
 792    1.186832790163e-05
 793    -1.8436810842964e-05
 794    8.9944760652355e-06
 795    -0.00079453986363127
 796    -3.8919211805354e-05
 797    -3.2726064259291e-05
 798    4.3573312071052e-05
 799    0.00068866745434595
 800    -0.0021559778444988
 801    -0.0083310315699722
 802    0.00018247400953996
 803    -6.969310220167e-05
 804    -0.00011104047457528
 805    -0.0035481280645594
 806    0.0021165574202133
 807    0.0045010981067234
 808    2.403544974086e-05
 809    5.5661961616854e-05
 810    0.00028252151403574
 811    -0.00019079629939423
 812    -0.00020930668995558
 813    -0.002681066064065
 814    -0.0068087369724216
 815    -0.017514193764596
 816    0.0028113547364792
 817    0.0036980651449154
 818    -0.00031722391503507
 819    -0.0043398414998451
 820    -0.0022973785564395
 821    -0.0020639794094937
 822    -0.00015097051899837
 823    0.00011684406724409
 824    0.00011116606330259
 825    -0.00020566797391461
 826    0.00047646243513946
 827    -0.010313862926701
 828    1.3255547879025e-05
 829    0.0014617385714478
 830    -0.0014526398244096
 831    -0.001456195623691
 832    -0.0050793229093497
 833    0.0034151565487895
 834    0.0017243028567897
 835    -0.0012630321636319
 836    -0.00073002963007592
 837    -0.0084055361284286
 838     0.023723952978696
 839    -0.00090648098119631
 840    0.00055280281221394
 841    0.00028552801730169
 842    -0.0032370118920144
 843    0.0011679312342027
 844    -0.0001444210857091
 845    -0.00034036926711305
 846    -9.4682315799499e-05
 847    -0.00086550422787471
 848    0.0061015004534337
 849    -2.0845975580085e-05
 850    0.00013145253644011
 851    -0.000411376675833
 852    -0.00063278015968443
 853    0.0058989372089936
 854    0.00013267271792654
 855    -0.00014985695459351
 856    0.00024084763189621
 857    0.00088855799634852
 858    -0.0039023446992389
 859    0.0006209717678933
 860    0.0001200503269943
 861    -0.00026637373137723
 862    0.0025763087138436
 863    0.00078920574458683
 864    0.0016701066891147
 865     0.003339400829879
 866    4.8658210912982e-05
 867    -0.00050800725703265
 868    0.00046742906623088
 869    -4.7768427764366e-05
 870    -7.0274428870801e-05
 871    0.00013344741584292
 872    0.00028291160455748
 873    -0.0035430234571503
 874    0.00036912573221824
 875    0.00031553335822514
 876    0.00017314956239448
 877    -0.003779706346369
 878    -0.0055709242416133
 879    -0.0099103454474141
 880    -0.0002718063886547
 881    0.00062026466524369
 882    -0.00024597373303209
 883    -0.00011789950430537
 884     0.000251325442624
 885    -0.007672098884653
 886    -0.0073999493961901
 887    -0.00042095227076565
 888    -0.00016458072446386
 889    0.00078750419042867
 890    0.00033276007817384
 891    0.0038547273027991
 892    0.00097614917001283
 893    -0.0003996145568751
 894    -0.00097511788031114
 895    0.0042614244527954
 896    0.0087876226642071
 897    0.00035028166375769
 898    9.4422075297747e-06
 899    -0.002235035248386
 900    -0.001209902003238
 901    0.0029081710197974
 902    7.6824902807867e-05
 903    0.00013864531974053
 904    0.00016112096927401
 905    -0.0016605424881639
 906    -0.00070784426343155
 907    -0.00040782172084945
 908    -0.0013546451930569
 909    -0.00010891322951472
 910    0.0004167564991523
 911    -0.00076034678986654
 912    0.00013751643546254
 913    0.00080914335725581
 914    9.8502474626345e-05
 915    -0.00064255004142002
 916    0.0028480676651746
 917     0.010770108616799
 918    -0.00029884425128269
 919    0.0010249749380071
 920    0.00043508165481584
 921    0.0016145130543269
 922    0.0015876153252963
 923    -0.0010875583756966
 924    2.827950358223e-05
 925    -9.4614091151441e-05
 926    -0.00013279253807152
 927    -5.3589344257168e-05
 928    0.00015870779769122
 929    0.0025182717387099
 930    0.0065857102991654
 931     0.014209169405732
 932    -0.0032260673854302
 933    -0.0065501796645901
 934    -0.00095632200894947
 935     0.011519044450876
 936     0.012046539421048
 937    -0.0010024310978926
 938    -0.00011598560699472
 939    0.00028854325641481
 940     0.000637980220392
 941    -9.7294279183374e-05
 942    0.00012419261203486
 943      0.00388872852783
 944    -0.0027290286403996
 945    0.0005780789594476
 946    0.00046168069639604
 947    5.5972140110093e-06
 948    0.0086004039192035
 949    -0.022942870187805
 950    0.0010906192319185
 951    0.0012896080360731
 952    -9.1769341039718e-05
 953     0.003673209688251
 954    -0.0014234319223546
 955    0.00082410146345003
 956    -0.00011969560617138
 957    -0.00065145324034902
 958    0.0011196506099803
 959    -0.0016666070111633
 960    2.8703851923209e-05
 961    0.00014084028924113
 962    -0.00011304510560108
 963    0.00077165815723139
 964    -0.0025677908916876
 965    4.6304568487705e-05
 966    -5.0344150501824e-05
 967    0.00017444318935661
 968    0.00044652304599763
 969    -0.0014063015384196
 970    2.8856229680638e-05
 971    1.8872640521223e-05
 972    -2.5581620938875e-05
 973     0.002174471117043
 974    -0.0052115535946526
 975    -0.018760469761658
 976    -0.0016190497169558
 977    0.0052365936840725
 978    -0.0010577508944258
 979    -0.0051424388938399
 980    0.0034100321873088
 981    0.0017547452459259
 982    9.4433957528557e-05
 983    -0.00020218836148259
 984    0.00023551362678241
 985    0.00012204488603359
 986    -5.3118051858619e-05
 987    0.00031490792357001
 988    -0.0012531643884905
 989    0.0096567726070606
 990    -0.0002918429470218
 991    0.00035009112114214
 992    -0.00026017112597088
 993    0.00030796713766866
 994    -0.0054693545744923
 995    0.0030325943833133
 996    0.00018055573104785
 997    0.00045371567773681
 998    -3.0650628144161e-05
 999    0.00016257673766054
 1000    0.00013090871946174
 1001    -0.009966547047489
 1002    -0.0069035751645961
 1003    0.00082942344439651
 1004    0.00072019995824423
 1005    -0.00048901088281529
 1006    0.0007907753155006
 1007    -0.0034196906389078
 1008    0.00033420929912914
 1009    -0.00080905255951014
 1010    0.00070528838093978
 1011    -0.00022262481480885
 1012    0.0021786969629485
 1013    -4.7698231297442e-05
 1014    -0.00039543560178967
 1015    -0.00024693626511596
 1016    -0.0062502815064207
 1017       0.0157700455227
 1018    -0.00029241714831473
 1019    0.00015095083090776
 1020    -0.00021228365029226
 1021    0.0020267980640964
 1022    0.0053378460404144
 1023    -8.2912874794102e-05
 1024    -0.00036072470328691
 1025    9.2216357781693e-05
 1026    -0.0021343678407995
 1027    0.0066945149223437
 1028    6.1102680984113e-08
 1029    7.7347966480369e-05
 1030    3.089732765289e-05
 1031    -0.00089656903123848
 1032    0.0034958420702853
 1033    0.0092987746734601
 1034    0.0020206743390308
 1035    -0.0012235554043043
 1036    -0.002466378396452
 1037    0.0080322677493948
 1038    -0.0015820706947237
 1039    -0.0080551868698328
 1040    -0.00026182204148909
 1041    0.00019206425405008
 1042    0.00014986101417232
 1043    -0.00019601140307307
 1044    -0.00044940574966709
 1045    0.0012492923318661
 1046    0.0024629031980836
 1047     0.011183159957988
 1048    -0.00048399589111116
 1049    0.0022611945289231
 1050    0.0006297865202427
 1051    0.0014444550342268
 1052    0.0024877322103824
 1053    -0.0004977455296763
 1054    0.00018719089817749
 1055    -1.5806639540149e-05
 1056    4.5441450631186e-05
 1057    0.00017748579021573
 1058    -9.1915243419261e-05
 1059    -0.0025606190344747
 1060    -0.00032710178149739
 1061    -0.00026247945145651
 1062    -0.00028845752937095
 1063    -0.00045541475429324
 1064    0.00075776036573064
 1065    -0.0013525838198138
 1066    0.00028453548855501
 1067    0.00045923474655651
 1068    0.00019500958660075
 1069    -0.00089012209926728
 1070    -0.0027592813586235
 1071    0.00027833454374642
 1072    -0.00042607146105462
 1073    0.00028063165716768
 1074    0.0028935292945013
 1075    -0.0051099966206263
 1076    0.0015643462352675
 1077    -0.00087108672186244
 1078    -0.00022327066966247
 1079    0.0080631819652354
 1080    -0.009087428886731
 1081    0.00053191418319387
 1082    -0.0015543716363767
 1083    -0.0026994709040716
 1084    0.0020834592349897
 1085    -0.0070734322924743
 1086    -0.00082345805161812
 1087    0.00060845247381033
 1088    0.00095062774888831
 1089    -0.002203402664482
 1090    0.0060584183314143
 1091     0.012416519068432
 1092    0.0033083250310224
 1093    -0.004101492552373
 1094    0.0012159057193534
 1095    3.8664616059887e-05
 1096    0.00050556436914688
 1097    0.0071356636997347
 1098    -8.081460476089e-05
 1099    0.0002672478576288
 1100    0.00019562914785322
 1101    7.1772486996795e-05
 1102    -2.9605236603432e-06
 1103    0.0012304778728602
 1104    0.0037025420957932
 1105     0.005786699700866
 1106    -0.0016091438758176
 1107    0.0028283306089838
 1108    0.0012525011498071
 1109    0.0025105763847614
 1110    0.0010610367746824
 1111    0.0007266112013508
 1112    -0.00018097238257143
 1113    -0.00029511914637537
 1114    0.00011388466607906
 1115    -0.00033239298104471
 1116    8.8458500995084e-05
 1117     0.010648113333064
 1118    -0.001224327135083
 1119    0.0010606558017605
 1120    -0.00062929857732063
 1121    -0.00063688627064473
 1122      0.00106714108398
 1123    -0.00096967370331436
 1124    7.2652104325585e-06
 1125    -6.6846479576129e-06
 1126    0.00031177145646097
 1127    0.00069372194186317
 1128    -0.0054430893795728
 1129    0.00022269415521741
 1130    0.00048723990293799
 1131    -0.00029526221856941
 1132    0.0032046294340676
 1133    -0.0065721452112898
 1134    0.00010816634347113
 1135    -0.00021614005500804
 1136    -0.0002315404280195
 1137    -0.0030613647420521
 1138    -0.0048621415514133
 1139    0.00014538284422661
 1140    0.00024559015675162
 1141    -6.9081742214663e-05
 1142    0.0050210443082738
 1143    -0.010462932001522
 1144    -0.00016003592278577
 1145    0.00010084802710964
 1146    -9.7747301365313e-06
 1147    0.00085443751914804
 1148    -0.0039299795629132
 1149    -0.018296795514558
 1150    0.0003162082517939
 1151    -0.00072998703392596
 1152    -0.00022625382962694
 1153    0.00091895874928704
 1154    0.00031698620199968
 1155    -0.00058741721821791
 1156    3.6634558111385e-05
 1157    -5.3233860945579e-05
 1158    6.4495310656297e-06
 1159    2.9425664584745e-05
 1160    -3.8781136501104e-06
 1161    -0.0038848451860398
 1162    -0.010557142493435
 1163    -0.024974431104153
 1164    -0.0039018999277549
 1165    0.0078603390085664
 1166    0.0029056073742867
 1167     0.010358887421562
 1168    -0.015536418314642
 1169    -0.009358848447746
 1170    2.5059473084654e-05
 1171    -0.00049647412526996
 1172    0.00027967152478282
 1173    -2.5859523551124e-05
 1174    -0.0001963461280441
 1175    -0.013701736593816
 1176     0.019032163158777
 1177    0.0014126926598095
 1178    -0.0022449767806002
 1179    -0.00062188457029305
 1180    -0.010350133452911
 1181     0.012220118610807
 1182    0.0015994625108142
 1183    -0.00025719532048402
 1184    -0.0014845299548225
 1185    -0.012635560474253
 1186      0.01541545453798
 1187    0.00050121408894984
 1188    -0.0021848518841019
 1189    -0.0014136101596112
 1190    -0.00081748405874808
 1191    0.0048282047686733
 1192    0.00039254033856383
 1193    -6.4524431562446e-05
 1194    7.8509730970571e-05
 1195    -0.00072672428970877
 1196    0.0041604213874193
 1197    -3.6220561723197e-05
 1198    -8.4942621536746e-05
 1199    -0.0003819152472255
 1200    -0.0014901947444996
 1201    0.0052886062399408
 1202    -0.00011930759357717
 1203    -0.00040478352858234
 1204    8.8024757011352e-05
 1205    0.00048955033150056
 1206    -0.0011297180660313
 1207    -0.0075986969624888
 1208    -8.3133180241085e-05
 1209    3.6843216857567e-05
 1210    -0.00044866910006106
 1211    -0.0044916329054696
 1212    0.0021834509973378
 1213    0.0038622069100585
 1214    -0.00025642822640767
 1215    7.7049714648741e-05
 1216    0.00026749740637486
 1217    -0.00015019335025467
 1218    -0.0003253968543495
 1219    -0.002341526503347
 1220    -0.0064018270949971
 1221    -0.012544384962112
 1222    0.00012776957290795
 1223    0.0029201930312578
 1224    -0.002339556951589
 1225    0.0022215631414277
 1226    0.0009875137439516
 1227    0.0020324677532761
 1228    7.6244122518547e-05
 1229    -2.3289821991359e-05
 1230    -0.00086647248019441
 1231    -5.6712314553923e-05
 1232    -4.9958001055089e-06
 1233    -0.0045308906315904
 1234    0.0042463090133697
 1235    0.0006483464644539
 1236    -0.0011207246338623
 1237    -0.0020038196033276
 1238    -0.012085283761382
 1239    -0.0029036096758676
 1240    0.0017774158594936
 1241    -0.0018282379451869
 1242    -0.0013385461033836
 1243    -0.0066258290908498
 1244     0.019508241747437
 1245    -0.00046889312892416
 1246    0.00096260543585312
 1247    6.5952745094892e-05
 1248    -0.0039728472927167
 1249    0.0019594908731772
 1250    4.7188972183953e-05
 1251    -0.00038440428840172
 1252    0.00012523790506829
 1253    -0.00072926214376649
 1254    0.0053091760459357
 1255    -0.0001744562024241
 1256    -7.8384583426184e-05
 1257    -0.00020798166687874
 1258    -9.247157988885e-06
 1259    0.0053596124628194
 1260    0.00036638811422833
 1261    0.00011230791164976
 1262    -3.3635005338349e-06
 1263     0.001557097014167
 1264    -0.0039745800242114
 1265    -0.016807305369493
 1266    0.00087531816311628
 1267    0.0038273574084312
 1268    0.00015156493688434
 1269    -0.0019863432445673
 1270      0.00189859943976
 1271     0.004591426965003
 1272    3.9249992354131e-05
 1273    -0.00013822537849446
 1274    0.00022695138947152
 1275    0.00011105544210444
 1276    -0.0002074221151691
 1277    0.00011923699250244
 1278    -0.0014543243536525
 1279    0.0073826770501253
 1280    -6.4732203911164e-05
 1281    -0.00020921873857231
 1282    0.00036307620795713
 1283    -9.6603846489372e-05
 1284    -0.0065850513958991
 1285    0.00063274795974868
 1286    -4.0373249315939e-05
 1287    0.00039371515908637
 1288    -5.7925504616699e-05
 1289    0.00020775519399203
 1290    -1.6958273191992e-05
 1291    0.0026610317951211
 1292    -0.00056885546006259
 1293    -0.00058833003469735
 1294    -0.00095003978861755
 1295    -0.00058358928921129
 1296    -0.010428590124968
 1297    -0.0093266573132209
 1298    0.00069204049405698
 1299    0.00092729056552412
 1300    -0.00038298028552046
 1301    0.00063920698665843
 1302    0.0030605767775405
 1303    -8.4372664174627e-06
 1304    -0.00049809914563106
 1305    -6.4817416603295e-05
 1306    -0.0041485698112815
 1307     0.014762159303748
 1308    -0.00013627792479779
 1309    0.00022537922239992
 1310    0.00035122649575088
 1311    -0.0019415394030872
 1312    0.0060193160946919
 1313    -2.304970211064e-05
 1314    0.00022013231561574
 1315    -0.00013796802057006
 1316    0.0023737235597408
 1317    0.0044267291051749
 1318    0.0001739856895427
 1319    -0.00043670015438011
 1320    0.00021178647105825
 Sym= A
 Ene=   0.09645720936
 Spin= Alpha
 Occup=    0.00000
   1     0.019604374864099
   2    0.0033337539143701
   3     -0.02884722954911
   4    -0.034354037812122
   5    -0.0048486696471821
   6    -0.0050954808500618
   7    -0.037763446573268
   8    -0.0049434648450258
   9    -0.0051928670873363
  10    -0.038580743711233
  11     0.014901653698509
  12     0.014868272227577
  13       0.1012226943101
  14     0.011470211749253
  15     0.025701551827606
  16      0.21875053962872
  17     -0.01346996952853
  18    0.0029029621026275
  19    -0.00034922373126712
  20    -0.0030848551130221
  21    0.0021386539515811
  22    0.0078423282081268
  23    0.00056005475200939
  24    0.0039318464046627
  25     0.002241649017574
  26    -0.0018902221388806
  27    -0.0018156387613933
  28    -0.0019486261266611
  29    0.0078154834276596
  30    -0.0093325717407561
  31    -2.3711216553076e-05
  32    -0.00028010876957239
  33    -0.00029222362623424
  34    -3.9691793357701e-05
  35    -0.00027029093336271
  36    -0.00027498555545494
  37    -3.1807730048647e-05
  38    0.0025866322725551
  39    0.0031391707560683
  40    -0.00034775712911179
  41    -0.0076964066401461
  42    -0.015704453793603
  43    0.0018435219079729
  44     0.003833265174662
  45    -0.00023072038361139
  46    -0.0024857535026892
  47    -0.00041481968331605
  48    -0.0028654460754544
  49    -0.0044820412121565
  50    0.00015152368277796
  51    0.0034019161994823
  52    0.0010579093745247
  53    -0.0078106591838893
  54    -0.0081440990863139
  55     0.027668820547318
  56     -0.01210700010596
  57    0.0018294172446188
  58    -0.0056990386975606
  59    -0.0040935852710544
  60    0.0022382958609964
  61    -0.007027591636095
  62    -0.0050813203158734
  63    -0.0059246199692196
  64     0.017551466683236
  65     0.012649618788843
  66    -0.0059989132549438
  67      0.02750155933951
  68    0.0063666812618877
  69    0.0041144781097442
  70    -0.00034194893387378
  71    0.0058323581699361
  72      0.00374395598516
  73    -0.00056786137793032
  74    -0.0059186865811446
  75    8.3092434248042e-07
  76    -0.007705275264188
  77    -0.0051204266041883
  78    0.00076175433460407
  79    0.0096659972631581
  80    0.0090328019098938
  81    0.0031636176753779
  82     -0.15663395257144
  83    0.0033792102165148
  84    -0.0064750522056227
  85     0.004202901754801
  86    0.0041222919099209
  87    -0.008001564701704
  88    0.0051819403373983
  89     -0.01206446747915
  90     0.020909147340495
  91    -0.013751918903111
  92    -0.0086214895821239
  93     0.020049865045363
  94    -0.020299732085245
  95    -0.030495740449778
  96    -0.0019347119243728
  97    0.00066417709050846
  98    -0.0017371107801682
  99    0.0025590860061404
 100     0.042055284671897
 101    0.0033335788526568
 102    -0.0031564184961772
 103    0.0025948972332995
 104    -0.0024861862001498
 105    -0.010139630618144
 106    -0.010460590379722
 107     0.030503151509511
 108    0.0092849599909563
 109    -0.0021551932284939
 110    -0.00027960287185598
 111    0.00085182766731989
 112    -0.0026901210432268
 113    -0.00029332940337291
 114    0.0011680681871002
 115    0.0062741510481392
 116    0.0018085876716029
 117    -0.00028995320598092
 118    0.0098047216611502
 119    -0.0024923521500166
 120    -0.021774144313953
 121      0.00104584060941
 122    -0.0070741660462854
 123    0.0010033132635468
 124    -0.00044418017727896
 125    -0.0012281901576902
 126    -0.0016383940587351
 127    0.0082535722506815
 128    -0.000902307528866
 129    0.00080019865284084
 130    0.00095602082314825
 131    -0.007914474474642
 132    -0.008274479223947
 133     0.025977691549811
 134    0.0038519110059213
 135    0.0012353207589661
 136    -0.0017235672656479
 137    0.00088657313908786
 138    0.0015072578707196
 139    -0.0021913791393162
 140    0.0013234452694135
 141    -0.0044054183894383
 142    0.0039178631467092
 143     0.001995779696356
 144    -0.0020494078858784
 145      0.01462245752528
 146    -0.032197238043239
 147    0.0018076525191984
 148    0.00092533797268997
 149    -0.0056316470782076
 150    0.00048102151380986
 151    -0.0013349675800237
 152    -0.0035025175654624
 153    -0.00082549910481785
 154    0.0069997599186464
 155    -0.0010637460486663
 156     0.002432042860487
 157    -0.017910284178751
 158    -0.017871909128602
 159     0.036064813184118
 160     0.089877363586936
 161    0.0033990057270929
 162    0.0020870457628967
 163    -0.014467683830011
 164    0.0043152547378416
 165    0.0026313629405943
 166    -0.018202319596064
 167    -0.0083120901348341
 168    -0.0050316302821019
 169     0.037372715090416
 170    -0.028019541200945
 171    -0.019921973256894
 172       0.1153579240717
 173    0.0076439068482664
 174    -0.0044791030520647
 175    -0.0028500860434601
 176    -0.00011286842088653
 177    0.0015685434156077
 178    -0.0086798378907719
 179    0.0061034858822253
 180    0.0030802615063059
 181    0.00026868815250475
 182    -0.0022220728634092
 183     0.016561751887533
 184    0.0019308440507968
 185     0.012641248866897
 186     -0.13720029235239
 187     -0.03563323372444
 188    -0.035966037272606
 189     0.051284325164566
 190     -0.03636023157231
 191    -0.036927026786171
 192     0.052405636720606
 193      0.11152176904382
 194     0.081739832817909
 195     -0.14769597772962
 196      0.14468074077168
 197      0.29868664976276
 198     -0.29093808196692
 199    -0.0094068101077292
 200    0.0012929467161757
 201    -0.0098130696516843
 202    -0.0063164255659364
 203    0.0069991992286894
 204    0.0031003330827836
 205    -0.0069987159997997
 206    0.0019449400953268
 207    0.0048350685898894
 208    -0.0014403576172164
 209    0.0040456639770058
 210    0.0034361483141228
 211     0.012718213530759
 212     -0.11638600316968
 213    7.0621080331756e-05
 214    -0.0033170177532531
 215    -0.0032451880115401
 216    0.00016441657786293
 217    -0.0039678954334579
 218    -0.003998807778871
 219    0.0022652948660285
 220      0.01439671275042
 221     0.010221485418619
 222    -0.018174327080584
 223    -0.016263038017122
 224     0.020107436142456
 225     0.011091024087596
 226    -0.005719109699156
 227    -0.0038673193397293
 228    -0.022477561720065
 229    0.0018309574838988
 230    -0.015272479422967
 231    0.0076359607255927
 232    0.0041828036020985
 233      0.03179346657659
 234    0.00034883111855622
 235    -0.029373769988665
 236    -0.030234231961935
 237     0.085206861463076
 238    -0.0066523668836771
 239     0.013316143770967
 240    -0.026126988259768
 241     -0.01090565449075
 242     0.016577535656775
 243    -0.032304200705388
 244    -0.013568847514777
 245     -0.03764403279148
 246     0.081527554041395
 247     0.029972116879361
 248    -0.088692302823707
 249      0.14456459629166
 250     0.090485905184256
 251     0.011218866249708
 252    -0.004362617064059
 253    -0.0039757286720234
 254     0.023539622434907
 255    -0.0015333739843579
 256    -0.012922013701313
 257    0.00069387642827025
 258    0.0044267548672266
 259    -0.028087747858906
 260    0.0034473357840494
 261    -0.051038049602582
 262    -0.051595426334408
 263      0.11588771185966
 264      0.18472048496221
 265     0.011624683313322
 266    -0.0053332634897886
 267     0.012861161031546
 268     0.014603024358939
 269    -0.0065925823554853
 270     0.016626341235716
 271    -0.030785974305504
 272      0.01507454625358
 273    -0.024399414782813
 274    -0.081292186888244
 275     0.020838832707978
 276     -0.16233044781871
 277    0.0027864596561528
 278    0.0071727530381532
 279     0.012499595727469
 280    -0.0018198608056741
 281    -0.0062424058128933
 282    -0.002119987974977
 283    -0.0070998155578319
 284    -0.017047139002952
 285    0.0024585287923079
 286      0.00612819429182
 287    -0.045107733826019
 288    -0.045815197858903
 289      0.11086587638662
 290      0.11755830566308
 291    -0.0046743457710642
 292    -0.0060100843050245
 293    -0.011651207487209
 294    -0.0063038931971765
 295    -0.0074944874950524
 296    -0.014645516174972
 297    0.0039730489364015
 298     0.016184888130417
 299     0.030999139843363
 300     0.082151140316873
 301     0.028974765544106
 302     0.082960347209437
 303    0.00043648442686285
 304     0.009792801163831
 305    0.0071400729196694
 306    -0.0041925807923461
 307    -0.010582294179088
 308    0.0010148083703041
 309    -0.010881922765426
 310    -0.0063185458464028
 311    0.0056850186986373
 312     0.013782003333285
 313    -0.027691709787335
 314    -0.027819361730745
 315     0.058090516763576
 316      0.12530339393565
 317    0.0066445640083302
 318    -0.010836694256581
 319    -0.0078772575791516
 320     0.008335408794974
 321    -0.013796150919008
 322    -0.0099792914139396
 323    -0.017963908579723
 324     0.023390723876827
 325     0.020038107822957
 326    -0.050004299675552
 327      0.12496954949601
 328      0.06491776475776
 329    0.0012784075988144
 330    -0.00078948580138345
 331     0.011369161604638
 332    0.00034455766035572
 333    -0.0071005608262372
 334    -0.0040792060890458
 335    0.0017399086641762
 336    -0.014890712409134
 337    -0.0047811867686762
 338    0.0092714586552783
 339    0.0012704161611153
 340    0.00016271916762397
 341    -0.00025961446816114
 342    -0.0053390643876038
 343    0.0027864997104439
 344    0.00018549097121438
 345    2.5073004793285e-06
 346    0.0028564592061258
 347    0.00018465670172814
 348    6.5758258152259e-08
 349    -0.0070186509742001
 350    -0.0017211818791108
 351    0.00014127051592335
 352    -0.017998047469673
 353    0.0058360485982082
 354    0.0007020818576007
 355    -0.00016226608975172
 356    -0.0014759784426645
 357    -8.3500624282475e-06
 358    -0.00074462572645394
 359    0.00049829457718127
 360    0.00033024120373279
 361    0.00061615235789129
 362    0.00068284899048717
 363    0.00063558349883418
 364    -0.0012310197023461
 365    -0.0017540010180111
 366    -0.0017438888505402
 367     0.003292147845867
 368    0.0086625547453117
 369    0.00081269356173233
 370    9.7596446445921e-05
 371    -0.00022460511861222
 372    0.0010479732355055
 373    0.00011854910443607
 374    -0.00026940909171826
 375    -0.0016276991391572
 376    -0.00030975621075039
 377    0.00080694079672405
 378    -0.0094779636067647
 379    -0.00040926597180161
 380    0.00048649524212509
 381    -0.0002242510721978
 382    0.00017752499218968
 383    -2.7293073359669e-05
 384    0.0003934727882305
 385    -0.00013426546709134
 386    0.00026867973036443
 387    -0.00031497845186232
 388    0.00010501986618658
 389    -0.00047801136826339
 390    0.00030393047843069
 391    -0.00028216843010756
 392    -0.00021878268691505
 393    -0.0006366917908378
 394    0.0023398859234789
 395     -0.00119204623908
 396    -0.0001849379772313
 397    0.00092593061903725
 398    -0.0014604531116029
 399    -0.0002084684487747
 400    0.0011170979759353
 401    0.0041138518725704
 402    0.00091223339671212
 403    -0.0035262414623942
 404    0.0031426130589393
 405    -0.0001201282259626
 406    -0.00052753630291093
 407    -5.9062567027547e-05
 408    0.0012520794864871
 409    -3.2226097350871e-05
 410    -0.00032214720953058
 411    -0.00053932307514562
 412    0.00013706910018781
 413    -0.0022492844541608
 414    0.00012900427865563
 415    0.00064963281083732
 416    0.00058991080377116
 417    -0.0041169936558249
 418    -0.0042042755492723
 419     0.010298369301497
 420     0.011494072920569
 421    0.00072252037735845
 422    0.00013081927072906
 423    5.3929444428811e-05
 424    0.00080963857893022
 425    0.00023485023802335
 426    7.4332330325749e-05
 427    -0.0043173015057613
 428    0.0011491843516444
 429    -0.00023813138440899
 430     0.013411621623251
 431    -0.0080816313470413
 432    0.0031984141798997
 433    -0.0017286627144894
 434    0.0031063905371135
 435    0.00035399930545013
 436    0.0007831679913551
 437    0.00046769123638277
 438    0.0030282227536272
 439    -0.0033529029779201
 440    -0.00067857441786183
 441    -0.0012942822598389
 442    -0.00043022359869788
 443    -0.0021031483609259
 444    -0.0021272464957738
 445    0.0051241557189961
 446    0.0054820807823058
 447    0.00053701412457275
 448    -5.0976594166148e-05
 449    -0.0005916309795947
 450    0.00065009368149585
 451    -7.3593863919465e-05
 452    -0.00072687341481957
 453    -0.0020505162402452
 454    -9.4013043943188e-05
 455    0.0020157969409422
 456    0.00053990522384778
 457    0.0021700028421665
 458    0.0012605443640543
 459    0.00030407747546596
 460    -0.00051017140460104
 461    0.00018670801493171
 462    0.00057607967808128
 463    0.00012670410525508
 464    -0.00047537405713193
 465    0.00053263562526404
 466    -0.00053318651362309
 467    -0.0009726430514579
 468    0.00014317379914117
 469    -0.00086567176959387
 470    -0.00086956954502985
 471    0.0019034302646534
 472    0.0027340022019994
 473    6.1945686649748e-05
 474    0.00015771856231908
 475    0.00012622223755161
 476    6.2844078295231e-05
 477    0.00019718877125974
 478    0.00013873090419564
 479    -0.00039612190940374
 480    -0.00042589308224585
 481    -0.00071982026498709
 482    0.00084259292290377
 483    -0.0010810643655563
 484    0.0013333833581925
 485    -0.0002103701475108
 486    0.00054980246774886
 487    -7.9177590330713e-05
 488    -2.8995404045567e-05
 489    -4.4984927249369e-06
 490    0.00024350117057152
 491    -0.00079259098197125
 492    -2.7073346301946e-05
 493    5.9439561166754e-05
 494    -9.0058694571626e-05
 495     0.011691371050428
 496    0.0019568922434336
 497    -0.017345684124891
 498    -0.017530644879627
 499     0.029560776475021
 500    -0.0004298055530036
 501    0.0032430107613863
 502     0.030224327733688
 503    -0.00042020412248672
 504      0.00328023626959
 505    -0.076441983382831
 506    0.0024716696558961
 507    -0.014560881083688
 508     -0.19026711151351
 509    0.0018440470287156
 510     0.015118557537809
 511    0.0050857372727919
 512     0.003190986737375
 513    -0.00056970952811044
 514    -0.0090355833813609
 515    0.00013004272048813
 516    -0.0032022040614327
 517    -0.0019514483423176
 518    0.00079448644946297
 519    0.0077781878362193
 520    -0.0040658143951463
 521    -0.013976916584211
 522    -0.013943475339671
 523     0.027741358280691
 524     0.073976695050256
 525     0.011620150913065
 526    0.0011166948275377
 527    -0.0017490077007608
 528     0.014634407873909
 529    0.0014354132673053
 530    -0.0022360020929149
 531     -0.02977676336218
 532    -0.002099902573902
 533    0.0041088242848862
 534    -0.095838658742899
 535    -0.014327177726971
 536     0.014486458594749
 537    -0.0033301083503445
 538    -0.0025051758088134
 539    -0.0007226751603558
 540    0.0054362505519112
 541    0.0017527740424473
 542    0.0036967861175222
 543    0.0038935330425579
 544    0.0010675424497839
 545    -0.0059614866551412
 546    -0.0017690206634262
 547    -0.0084056776150131
 548    -0.0085975242491058
 549     0.024932067063198
 550    0.0031194926251195
 551    0.0039335311071826
 552    -0.0029516620530763
 553    -0.00044813921575878
 554    0.0049072336375121
 555    -0.0035862417726318
 556    -0.00053085181976089
 557    -0.011590406205097
 558     0.010099904258482
 559    0.0017792264423514
 560    -0.0092659182079168
 561    0.0083663130565493
 562    -0.00078055234939195
 563    -0.00025072958627411
 564    0.00074668758302417
 565    0.0004816159828166
 566    0.0037436569790166
 567    -0.004584408409357
 568    0.00054963319046128
 569    -0.0014159761061587
 570    -0.00053745693812064
 571    -0.0052642648422553
 572    0.0056732974274155
 573    -0.008387739712585
 574    -0.0087539451960714
 575     0.029012897264276
 576    -0.0081923368986333
 577     0.001231081770116
 578    -0.00093056023699895
 579    -0.0012237670750992
 580    0.0014592470368213
 581    -0.0011205749907039
 582    -0.0014580032035634
 583    -0.0050794006661116
 584    0.0040336244652002
 585    0.0045264578404459
 586    0.0067909835749067
 587    -0.003030288742502
 588    0.0068398229714384
 589    -0.002438233351424
 590    -0.0054998905974421
 591    0.00022743110642715
 592    0.00074376305135211
 593    -0.0010088820350023
 594     0.002800851503662
 595    0.0073205302381183
 596    -0.00016853169063598
 597    -0.0011967960270126
 598    0.0027738778966362
 599    -0.0053343768257768
 600    -0.0053871787323417
 601     0.012822842544393
 602     0.012200569273975
 603    -0.0010682778579214
 604    -0.00049973703529413
 605    -0.0012402997567385
 606    -0.0014215298533788
 607    -0.00065757631076694
 608    -0.0015140430622196
 609    0.0015707371944782
 610    0.00062649017043087
 611     0.004210140946778
 612     0.017116380299084
 613    0.0068316107672886
 614    0.0022938068450719
 615    0.0002167422793486
 616    -0.00035545273301248
 617    0.00021563363230612
 618    0.00086713070313348
 619     0.005069501222816
 620    -0.00019640347503177
 621    5.2875827321643e-05
 622    -0.00025202331350574
 623    -0.0013172867069608
 624    -0.0060890668352233
 625    -0.0012929593788379
 626    -0.0014515437144489
 627      0.05744474293059
 628    -0.0081047987634281
 629    -0.0086912598558819
 630    -0.010230738173136
 631    -0.022605044300498
 632    -0.0091026031518907
 633    -0.029222186074648
 634    0.00017668799481975
 635    6.9077878537309e-05
 636    0.00040406610154449
 637    -0.00043326206282901
 638    0.00023099699666127
 639      0.01699852597623
 640     0.028048375233628
 641      0.19515447215808
 642    0.0035683020105589
 643     -0.01167985484943
 644    -0.015774621421413
 645    -0.0079599204313641
 646     0.017794356643723
 647     0.035476691366263
 648    1.9945277232159e-05
 649    5.5680167589725e-05
 650    -0.00029318057241457
 651    0.00034793525813419
 652    -0.00029052923399883
 653    -0.010565373659263
 654     -0.13344132674599
 655    -5.7660000116166e-05
 656    -0.0004919287945761
 657    -0.00043296787176268
 658    -0.0059919998003586
 659    -0.075296969763181
 660    0.00035711210057832
 661    0.00020310342254491
 662     0.000731228992935
 663    -0.0060653290001807
 664    -0.079139915998697
 665    -0.0012123219228321
 666    -0.0011474528349651
 667    -0.00095240569863147
 668    0.0032467754000005
 669    -0.026296280195019
 670    0.0001103475941174
 671    -0.00020377562343565
 672    -0.00058726886298845
 673    0.00052997277481598
 674    -0.010404482472839
 675    -0.00062431031329498
 676    -0.00033626400020656
 677    -0.00014419060741484
 678    -0.0021500696397239
 679     -0.04360759016548
 680    -0.00028170816901062
 681    -0.00045935791251348
 682    -0.00063451624299667
 683    -0.013639526714102
 684      0.01141225675636
 685      0.33551485370402
 686    -0.029285357039296
 687    -0.0098442930854166
 688     0.012884162669913
 689    -0.091955936460707
 690    -0.039446008656937
 691     0.035262030284751
 692    -0.00032772522833792
 693    0.00041233449083056
 694    -0.00058980761115926
 695    0.00035940102196594
 696    0.00027014668082081
 697     0.025550010440422
 698     0.035722568116584
 699      0.34464557867947
 700    -0.016952605281092
 701    -0.026543347024229
 702    -0.022547827616173
 703     0.041406410780934
 704     0.068514161350137
 705     0.066040700759809
 706    0.0005800356774719
 707    -0.00035512245325599
 708    0.00068038416749503
 709    -0.00013762252383381
 710    0.00071902228172694
 711    -0.016444316956512
 712    -0.098103704080481
 713    -0.0010222745696436
 714    -0.00014219318201272
 715    -0.00095864362176874
 716    -0.009984856803306
 717    -0.097540492267442
 718    0.00068324433841492
 719    -0.00077407988078204
 720    -0.00052071156557543
 721    -0.016561881680311
 722     -0.33854527847928
 723    0.0015484590433945
 724    0.0026689157640805
 725    0.0033466550672225
 726    -0.0034491568455421
 727    -0.090464649210313
 728    -0.00076395186466124
 729    0.00021834739101965
 730    8.7556903508887e-05
 731     0.003669544895032
 732     -0.15811935618181
 733    -0.0010553605599584
 734    -0.0001561592535003
 735    -0.00040005656023751
 736    0.0044881757621191
 737     -0.21264469886579
 738    -0.00025940448593362
 739    -0.0011695922804152
 740    0.0009753701902478
 741    -0.065812033857331
 742     0.083915123011089
 743       1.4658513174782
 744    -0.031052470899174
 745     0.066648663622717
 746     0.028769349098292
 747     -0.15002005435893
 748      0.33970160856717
 749      0.13502863007678
 750    -0.00073727496156346
 751    -0.0013345378655785
 752    0.0029021383451714
 753    -0.0016716395373273
 754    -0.0027766761449143
 755     0.058323862770595
 756     0.090948054663168
 757      0.75789133526073
 758    -0.018086193080407
 759     0.037388211112157
 760     0.023973268739503
 761     0.080416408882098
 762      -0.1446257745174
 763    -0.087099497410634
 764    -0.0009768800789191
 765    -0.0013635409671853
 766    0.0028834368963167
 767    -0.0014517393861609
 768    -0.0027869453483369
 769    -0.039866462635307
 770     -0.40546929269443
 771    -0.00018636941675995
 772    -0.004076709951787
 773    -0.0027212162390931
 774    -0.039593030905848
 775     -0.40181912830413
 776    0.0039826360641821
 777    0.00022360187176246
 778    -0.0034120117603914
 779    -0.043180176635989
 780       -0.382315479099
 781    0.0033372920830236
 782    -0.0045505982600156
 783    -0.00035120412211741
 784    -0.0072248009472792
 785     -0.74683543558816
 786    -0.0027409980174966
 787    0.0026126446149168
 788    -0.00061597761324982
 789    -0.0069458345202418
 790     -0.70846755024016
 791    0.00064952401288318
 792    0.0021914296216072
 793     0.002398119023212
 794    -0.0037250203942037
 795     -0.61214018561262
 796    -0.00077453015348069
 797    0.00037698008053685
 798    0.0010873311869269
 799    -0.00064409068007405
 800    0.00052936182798882
 801     0.016257568633229
 802    -7.2834972345023e-05
 803    -0.00069071551679053
 804    -0.00087499782370439
 805    0.00027377382996946
 806    -0.0052364485768171
 807    -0.0030652658009794
 808    7.0882499735422e-05
 809    -1.9715312323485e-05
 810    2.2210352014341e-05
 811    -3.6562924294658e-05
 812    1.5547199791234e-05
 813    0.0013146859109559
 814    0.0018030247117193
 815     0.017262403282394
 816    0.00025948500333994
 817    -0.00071039127589602
 818    -0.0014200177267644
 819    0.00055952892962008
 820    0.00063801547409953
 821    0.0061111763873037
 822    2.7552943975113e-05
 823    0.00014606927309221
 824    3.9990592954188e-06
 825    -7.8482864044142e-05
 826    -4.6542062678201e-05
 827    0.0012474324470496
 828    0.0025682311687576
 829    -0.00033297266840813
 830    0.00038538253213171
 831    0.00016208714849107
 832    -0.0014315839063141
 833    -0.015990355454853
 834    0.00017156056650708
 835    -0.00011251154364898
 836    0.0002327855514253
 837    -0.00073456052460997
 838    -0.0073160774993209
 839    9.5117852778957e-05
 840    9.7902410184089e-05
 841    5.2356490291237e-05
 842    0.00012449146158505
 843    -0.0060627255312635
 844    -6.9174068032314e-05
 845    -1.9779345811357e-05
 846    9.8605058188365e-05
 847    -0.0006144544075654
 848    -0.0075288731047502
 849    4.8290021138557e-05
 850    -1.9218550401745e-05
 851    3.0760558644064e-05
 852    0.00083259350365373
 853    -0.0099148676797697
 854    -8.8369649565385e-07
 855    -3.6120900494856e-05
 856    -0.00011563930508973
 857    -0.0035471196721763
 858    0.0022820961685868
 859       0.0814531648022
 860    -0.00066222587676741
 861    -0.010318450482153
 862    0.0037620113935659
 863    0.0046215493509057
 864    -0.032652443177777
 865    0.0067455654788307
 866    -0.00025130468869776
 867    0.0001531403753422
 868    0.00018475654567152
 869    -0.00012191544063007
 870    0.00031224036481423
 871    0.0072780081376632
 872     0.012074310171794
 873     0.089753570984401
 874    0.0038312928180994
 875    -0.0068013509864459
 876    -0.003846983361785
 877     0.002358650168394
 878     0.011306121900124
 879    0.0063021493900252
 880    0.00013940241841175
 881    0.00011201904840163
 882    -5.1885701881944e-05
 883    -0.00015476724117031
 884    -9.7536050787211e-05
 885    0.0006881292756036
 886    -0.028656827625673
 887    -3.0848506082419e-05
 888    0.00049835158257899
 889    -0.00025765933630492
 890    0.0016474650560956
 891    -0.059716748773172
 892    -0.00047501093813322
 893    0.00035108161547577
 894    0.00025537238549213
 895    -0.0036359347536834
 896    -0.055253010049468
 897    0.00027266190915633
 898    0.00042306416495598
 899    -6.5308542603727e-05
 900    0.0049956555884933
 901    -0.060271744673193
 902    0.00025676641581574
 903    -0.0006792695932707
 904    -0.00028884716569773
 905    0.00039258367577422
 906    -0.037316409925053
 907    0.00017639300763464
 908    0.00017879207130613
 909    6.8047885414343e-05
 910    -0.0032112274110342
 911    -0.019725735072591
 912    -9.9739224125551e-06
 913    -0.00012644402072855
 914    4.2489158076213e-06
 915    -0.0083916067157373
 916     0.016285063605502
 917      0.11633959886298
 918    -0.011996790709217
 919    0.0052011600690977
 920     0.007492079453914
 921    -0.037949219307915
 922    0.0018680570481981
 923     0.021892250837719
 924    0.0002540308359073
 925    -0.00080625195306714
 926    -0.00027879981401886
 927    -0.0002415640981748
 928    0.00086945734707306
 929     0.011570572957906
 930     0.018215562975546
 931      0.14124237898933
 932     0.003129198994224
 933     -0.01124447619122
 934     0.010799112937496
 935    0.0082574386152485
 936     0.022993942899696
 937    -0.023877190371931
 938    1.7416223743841e-05
 939    -0.00099747782938318
 940    0.00020707846599387
 941    0.00040843843325219
 942    0.00085626025778581
 943    -0.012302507872601
 944    -0.099519699745639
 945    0.00068932921446155
 946    -0.0012761083850999
 947    0.00071116205880258
 948    -0.0062444255588647
 949    -0.068831784868949
 950    0.00085262211227921
 951    0.0010080364442385
 952    -7.3308728650431e-06
 953    -0.0080487628263998
 954    -0.048583664163616
 955    0.00071874814994267
 956    0.00023004204130455
 957    -0.0011387310087065
 958    0.00035490717037035
 959    -0.072917450873722
 960    0.00046456162905103
 961    -0.001119202770756
 962    0.00043460419077299
 963    -7.6523603438926e-05
 964    -0.043991795072534
 965    -0.0006031411210388
 966    0.00022300282458714
 967    0.00021787257592091
 968    -0.00087758438251054
 969    -0.037934030335201
 970    -1.9120437357924e-05
 971    -1.9110206177532e-05
 972    0.00030804087360427
 973    -0.0021047583091148
 974    0.0015658304575553
 975       0.0496284621302
 976    -0.0028586754323847
 977    -0.0017153590282134
 978    -0.0055439527364217
 979    -0.0098573915441677
 980    -0.0041366491452224
 981    -0.017472743737473
 982    0.00013967448507741
 983    2.1290289097437e-05
 984    -5.5745453294192e-05
 985    0.00015367626355218
 986    -0.00010522348846313
 987    0.0026918088015428
 988    0.0055460269040981
 989     0.022034903371517
 990    0.0024429985171706
 991    0.0009841705875938
 992    -0.0027450200368153
 993    -0.0016001089360435
 994    -0.00093837540636371
 995    0.0056651226447268
 996    0.00019103175395944
 997    0.00015144240624071
 998    0.0001007530892892
 999    -0.0001002962896005
 1000    -0.00011851389540525
 1001    -0.002176477278535
 1002    -0.012454117107258
 1003    0.00033021228112701
 1004    0.00012429026261766
 1005    -0.00051053098730335
 1006    -0.00072933570888578
 1007    -0.010245510475831
 1008    -0.00022832847558114
 1009    -3.8650434013558e-05
 1010    0.00014374691538454
 1011    -0.00026920829284214
 1012    -0.011855490394622
 1013    0.00013775239639964
 1014    -9.715667818211e-05
 1015    0.0001151785741378
 1016    5.0897098391383e-05
 1017    -0.0099447666417344
 1018    0.00010730467279914
 1019    7.975980122425e-05
 1020    5.636579835235e-05
 1021    -0.00076492175401998
 1022    -0.012420287569314
 1023    7.7694916665292e-06
 1024    -0.00010220485667326
 1025    -0.00012573255507417
 1026     0.000516140600246
 1027    -0.043855776603953
 1028    0.00018155857705697
 1029    0.00028455302809726
 1030    -0.00041602187864158
 1031    -0.00013682560763756
 1032    -0.0064958910225201
 1033     0.048734726940641
 1034     0.016255689636986
 1035    0.0016196983732344
 1036    -0.014658315798315
 1037     0.025474099799631
 1038     0.011179002302364
 1039    -0.014390413393538
 1040    6.853608443456e-05
 1041    -0.00031017105401264
 1042    -7.1222595277689e-05
 1043    9.5407439613479e-05
 1044    0.0001042712360009
 1045     0.021572534163854
 1046     0.035208214056741
 1047      0.25108609402681
 1048     0.016777259607045
 1049    -0.0031402700435848
 1050    -0.017354345869748
 1051    -0.030100789535997
 1052    0.0091109624091564
 1053     0.025162211138335
 1054    -0.00036696766240855
 1055    0.00088688939366533
 1056    -4.0489688943573e-06
 1057    -0.00041993584601227
 1058    -0.00010258938574229
 1059    -0.0078049301517493
 1060     -0.13915422193556
 1061    0.00046097220537432
 1062    0.00049739260918878
 1063    -0.00040902043564132
 1064    -0.0042122497681165
 1065     -0.12545211124921
 1066    0.00084405796995793
 1067    0.00042429642312827
 1068    -0.00017015132614957
 1069    -0.0075337902579224
 1070     -0.12864315957523
 1071    0.00081968233520937
 1072    8.0815132780293e-05
 1073    -0.001378214666146
 1074    0.0020019500967784
 1075    -0.0043742249031492
 1076    0.0012108394428395
 1077    0.00019138113601879
 1078    0.00039656833299665
 1079    0.0015457717532973
 1080    -0.014852996103517
 1081    0.00029943364432721
 1082    0.00052339627004747
 1083    -0.0011015871032992
 1084    0.00035452379873038
 1085    -0.034722023290563
 1086    0.0008336587137554
 1087    -0.00034678110084985
 1088    -0.00094979233326293
 1089    -0.016096649475702
 1090     0.012778902943968
 1091      0.39694317363707
 1092    -0.022913783859538
 1093    0.0029430337897218
 1094      0.02353358423092
 1095    -0.063609312548131
 1096     0.023354265079054
 1097     0.087029600476629
 1098    0.00013235793320647
 1099    -2.8836021543671e-05
 1100    0.00030303608867097
 1101    -0.00073286560237304
 1102    -0.0003120979337215
 1103     0.016160548461076
 1104     0.025125808873476
 1105      0.19826581533328
 1106    0.0087766777334399
 1107    -0.013430360838316
 1108     0.020602556242363
 1109    -0.027644259698027
 1110     0.030814021607515
 1111    -0.048717942312404
 1112    0.00019917848208937
 1113    -0.00049998842252357
 1114    -0.00011879376648131
 1115    0.0006255780186382
 1116    0.00012467815261268
 1117    -0.005377576794993
 1118    -0.034940884570214
 1119    0.00090470456769552
 1120    0.0011029760599528
 1121    0.00018207101523627
 1122    -0.011122100853644
 1123      -0.1992544199343
 1124    -0.0018585630969211
 1125    0.00095350368252963
 1126    -0.00084737945637933
 1127    -0.0059218327517408
 1128    -0.093505449198203
 1129    0.00071285928155856
 1130    -0.00068477792695603
 1131    -0.00087042374686016
 1132     0.003436380926932
 1133     -0.18703203617317
 1134    -0.00010773232468236
 1135    -0.00093780708938368
 1136    -0.00041800791459056
 1137    0.0064374438478968
 1138     -0.26507477671129
 1139    -0.00085583554076271
 1140    0.0018569419692176
 1141    0.0016086273319099
 1142    -0.004923779598771
 1143    -0.090593707578081
 1144    -0.00032073763529176
 1145    -0.0004523425947925
 1146    0.00047097423614566
 1147    -0.00014859183152365
 1148    -6.2400963030343e-05
 1149    0.0056265466802779
 1150    0.0004118612539438
 1151    -0.00065899366525044
 1152    -0.00041172967642202
 1153    0.00076947034466354
 1154    -0.0022230105915263
 1155    -0.001290799608394
 1156    1.2650677801241e-05
 1157    -3.1033793381909e-05
 1158    1.4150138257974e-05
 1159    3.0089278665293e-05
 1160    -2.2436713861134e-05
 1161    0.00080998703217004
 1162    0.0011693180601965
 1163     0.010095310383247
 1164    0.00084217970780935
 1165    0.00038866031443518
 1166    -0.0007923140100595
 1167    -0.0018711725369725
 1168    -0.00065654723813275
 1169    0.0021456306326119
 1170    4.8066695711915e-07
 1171    4.1311679936195e-05
 1172    4.2559761181739e-06
 1173    -1.1368688427602e-05
 1174    1.227651357372e-05
 1175    -0.00020010966723308
 1176    -0.0022871297619446
 1177    5.042582692552e-07
 1178    -1.5407713629321e-05
 1179    -5.2737689185569e-05
 1180    -0.00081374241565599
 1181    -0.0088361119581256
 1182    4.296470778447e-05
 1183    -6.4119629831001e-05
 1184    -4.183850221315e-05
 1185    -0.00019419225170702
 1186    -0.0028024965087529
 1187    1.9664582460058e-05
 1188    3.8419342466611e-05
 1189    5.797365544895e-05
 1190    -0.00014047074383845
 1191    -0.0035148035187352
 1192    1.0756449678378e-05
 1193    -1.6975772094775e-05
 1194    -3.8851273496955e-05
 1195    -1.6463045004425e-05
 1196    -0.0030480929417974
 1197    3.3918965899334e-05
 1198    -4.2981465797245e-06
 1199    -1.2579815682988e-05
 1200    0.0001738930035303
 1201    -0.0014157893054058
 1202    1.5712563674592e-05
 1203    -4.01193335691e-05
 1204    -8.4623004467494e-06
 1205    -0.00049403092580537
 1206    0.0010038315382399
 1207    0.0080804413389032
 1208    0.00090772602020665
 1209    -0.00048721375924924
 1210    -3.4177429433383e-05
 1211    0.0050217257176939
 1212    -0.0040390995849664
 1213    -0.0010922620458026
 1214    -9.3431499112871e-05
 1215    3.9614544951877e-05
 1216    -8.8067372053415e-06
 1217    1.7755255267467e-05
 1218    -2.4488316257934e-05
 1219    0.0013008243145088
 1220    0.0022111594348566
 1221     0.013757414503386
 1222    0.0013496742302566
 1223    -0.00058491745925776
 1224    -0.00031258877331469
 1225    -0.0046281520932678
 1226    -0.00042001137376062
 1227    -0.00081076052221249
 1228    -0.00010965964529754
 1229    0.00015312134564002
 1230    4.7801559739198e-06
 1231    -1.917907205628e-05
 1232    -2.0330712485869e-05
 1233    -0.00094136474589466
 1234    -0.010838045206774
 1235    -3.5730508015226e-05
 1236    -8.2144250684495e-06
 1237    -0.00021190168410334
 1238     0.000692421734738
 1239    0.0044967058924787
 1240    -9.8837604334414e-05
 1241    0.00016746785022346
 1242    9.3451283657114e-05
 1243    -0.00097007641143563
 1244    -0.006359373934272
 1245    -5.6733906009438e-05
 1246    0.00014091124852484
 1247    -6.5857878205362e-05
 1248    9.7800141901065e-05
 1249    0.0008935724311139
 1250    -3.6343927995006e-05
 1251    -3.2261470039159e-06
 1252    -5.9712170588198e-05
 1253    0.00059469966082599
 1254    -0.0094617217337586
 1255    0.00012897805704855
 1256    -3.0594613059341e-05
 1257    3.8244966541799e-05
 1258    -0.00028338486391323
 1259    -0.005414484253571
 1260    -5.5406723364359e-05
 1261    -2.0606349145138e-05
 1262    -1.7664730978947e-05
 1263    -0.0011992580523985
 1264    0.0009945029815293
 1265     0.029239362513827
 1266    0.0039194646805968
 1267    -0.00098405381363137
 1268    0.00074721174263043
 1269     0.014119100671949
 1270    -0.0013171228461443
 1271    0.0021021751886074
 1272    3.8795804849975e-05
 1273    4.2979078167744e-05
 1274    6.6961440775607e-06
 1275    0.00014992292794299
 1276    4.0910843412292e-05
 1277    0.0022821163240762
 1278    0.0049802657203843
 1279     0.016823505163798
 1280    0.0014239082639677
 1281    0.00027812192647742
 1282    -0.0022209976469573
 1283    -0.0012508207555997
 1284    0.0020681490606565
 1285    0.0019077121655185
 1286    -9.9939742675552e-05
 1287    1.7885829957279e-05
 1288    0.00011021301589133
 1289    4.7377644771349e-05
 1290    -5.442125982452e-05
 1291    -0.00056414514600173
 1292    -0.0055992311779449
 1293    0.00010205053624984
 1294    -6.3114600377909e-05
 1295    0.00025773342915748
 1296    -0.00093690254793993
 1297    -0.00097689812968477
 1298    0.00036960632970517
 1299    0.00022184174312813
 1300    -0.00025821308067813
 1301    -0.00069431269694674
 1302      -0.0143108890093
 1303    -0.00012261021468835
 1304    -2.7249256651836e-05
 1305    -2.0855346945844e-05
 1306    0.00018002067123436
 1307    -0.0057659565497565
 1308    -4.8066672190423e-05
 1309    4.1292372847156e-05
 1310    -4.0377386341473e-05
 1311    0.00088507750786741
 1312    -0.028586204410186
 1313    0.00032863770883181
 1314    0.00010916861476484
 1315    -7.23107684267e-05
 1316    -0.00074958843399177
 1317    -0.0082219057245661
 1318    2.1730992178104e-05
 1319    -2.4711891409906e-05
 1320    -5.7248397688343e-05
 Sym= A
 Ene=   0.09780177253
 Spin= Alpha
 Occup=    0.00000
   1    -0.024673704558596
   2    -0.0043838658660044
   3     0.037336831971454
   4     0.045550843448691
   5    0.00026488827329879
   6    0.0073065246410319
   7     0.051112563115661
   8    0.00022416759948336
   9    0.0074568610930156
  10      0.05224146665876
  11    -0.0070842542949914
  12    -0.021406454502084
  13      -0.1361235044403
  14     0.035667572799778
  15    -0.030477764376402
  16     -0.28809855198815
  17     0.020375016512628
  18    -0.0053600520802728
  19    -0.0036121728184677
  20    -0.0011110082080621
  21    -0.00025229978195621
  22    -0.0086114214963681
  23    0.0017813631841235
  24    0.0013899113743317
  25    0.00087529426599808
  26    -0.00029757963366266
  27    0.0046008915806914
  28     0.004686121019425
  29    -0.010672137523859
  30    -0.020605871490084
  31    0.0027413142841506
  32    -0.00095162314322351
  33    5.5253839793485e-05
  34    0.0033875486609274
  35    -0.0012474833322763
  36    -7.8791230829401e-05
  37    -0.0086439664362629
  38    0.0014920972566989
  39    -0.0037548206329747
  40    -0.010033761142126
  41     0.011558149997912
  42     0.027078306687005
  43    -0.00074670908182378
  44    -0.0044754898673567
  45    -0.00039930241854994
  46    -0.0012623182508108
  47    -0.00073557890245143
  48    0.0019735298950476
  49     0.005907297329511
  50    0.00074180920033593
  51    0.00088250638769515
  52    0.00094673188948541
  53    -0.0053908957591681
  54    -0.0054879315550427
  55     0.013656661210835
  56     0.017885617320942
  57    0.0026374759017868
  58    0.0027150002963482
  59    -0.0034368451005065
  60    0.0032431555304204
  61    0.0034763256775701
  62    -0.0043733309749319
  63    -0.0086201153660306
  64    -0.0060140363278017
  65    0.0080390549659714
  66    -0.0097872182487971
  67    -0.027122684313088
  68     0.034450534792091
  69    -0.0019629570171663
  70    -0.0030310214464509
  71    -0.0055926207741513
  72    -0.0020014133593773
  73    0.00086114250489462
  74    0.0025033681984366
  75    0.0050686708849301
  76    0.0064299471040853
  77    0.0026864009040636
  78    -0.0009067578133741
  79    -0.033892182738759
  80     -0.03381805533233
  81     0.055709008087086
  82      0.25636964550779
  83    -0.00073011617329683
  84    0.00096481819423802
  85    -0.0097974761500439
  86    -0.0011492266842733
  87    0.0014369187644243
  88    -0.012194323811659
  89    -0.0031509205393914
  90    0.0028488455183993
  91     0.027939157457948
  92     0.042458445302906
  93    -0.039396901250589
  94     0.080556406577083
  95     0.034543958963996
  96     0.010954267475857
  97    0.0014467699052793
  98    -0.00031637034029533
  99    -0.0017173858292138
 100    -0.043839030005497
 101    -0.012940304138389
 102    -0.0039055624590701
 103    0.00037456361709196
 104     0.002292655021843
 105    0.0011583459615581
 106    0.0011399895880338
 107    -0.0031588506985839
 108    0.0078963375351095
 109    -0.001609141265949
 110    -0.0015010947720997
 111    -0.0075933975483905
 112    -0.0019666941036265
 113    -0.0018317661499382
 114    -0.0095786391609079
 115    0.0053443384536956
 116    0.0052706862018826
 117     0.020117757280994
 118     0.011098983206695
 119    0.0031372594271132
 120     0.054541615369552
 121    -0.00039448287987584
 122     0.010512315433302
 123    -0.00077491986621686
 124    0.00024313349011944
 125     0.001634382076156
 126    0.00012020829059366
 127    -0.013718279928175
 128    0.00059250677152211
 129    0.00025341896825657
 130    -0.0023574250384702
 131    0.0057036993436397
 132    0.0059448793267818
 133    -0.018001036307389
 134    -0.0062474031648027
 135    -3.6803516782869e-05
 136    0.0015931910474622
 137    -0.0045318173360727
 138    -6.0790857483352e-05
 139    0.0020544347918381
 140    -0.0058446458532632
 141    -0.00026265553059021
 142    -0.003172279529947
 143    0.0090774758381319
 144    0.0012938492265679
 145    -0.016190248893231
 146     0.050046946213073
 147    -0.00090208131748099
 148    -0.0023587814951033
 149    0.0087734828962543
 150    0.00056696463310397
 151    6.3980215156238e-05
 152    0.0018861925555045
 153    0.0040071965174701
 154    -0.011286119395743
 155    -0.00049181226160837
 156    -0.00067723693561632
 157     0.020602864506034
 158     0.020381501735716
 159     -0.03640968032619
 160     -0.12202737153226
 161    -0.0042247338370724
 162    -0.0044235543348381
 163     0.018285741130519
 164    -0.0054040797616719
 165    -0.0055429287467025
 166     0.023031900507578
 167    0.0095521992303423
 168     0.011901314441632
 169    -0.046644474238446
 170      0.03731514418796
 171     0.031615083954499
 172     -0.15152512994552
 173    -0.011249276555078
 174    0.0052815522612334
 175    0.0052661275840118
 176    -0.00012648565216653
 177    -0.0017260830257808
 178     0.013122755820652
 179    -0.0073184128157231
 180    -0.0066364830201325
 181    0.00037887783844291
 182    0.0024051562381446
 183    -0.039978178913985
 184    -0.0075136546927557
 185     0.063520659631639
 186     0.089020225188376
 187      0.10237169009947
 188     0.032600501940158
 189    -0.066728909440602
 190      0.10489477694394
 191     0.033218763827303
 192    -0.068403314317647
 193     -0.26068657818275
 194     -0.10494544771316
 195      0.16773578990182
 196     -0.73656156950157
 197     -0.11813584036082
 198      0.48576858052836
 199    0.0047835113876244
 200     0.012265733115819
 201    0.00093202247994871
 202     0.015827030784767
 203    0.0031269687676072
 204    0.0061936566894812
 205    -0.0014774667272381
 206    0.0064160650374248
 207    0.0079383881996479
 208    -0.013180630493051
 209    -0.052985827948537
 210    -0.052422377037367
 211      0.07590726458442
 212      0.42772258453941
 213     0.013611487291295
 214    0.00073759604242518
 215    -0.00095103975403828
 216     0.016981861693553
 217    0.0010424378306985
 218    -0.0010963403339681
 219    -0.037503724632978
 220    0.00097718624143021
 221    0.0043273438096436
 222      -0.1209619539668
 223    -0.025086285446855
 224    -0.0049709659833332
 225    -0.026644936160091
 226     0.001824130079407
 227    0.0010943427015138
 228     0.046021978472651
 229    -0.0045849112336266
 230     0.034274367008179
 231    -0.0012293766483305
 232    -0.0011924734028364
 233    -0.059521807007438
 234    0.0083790117533108
 235    -0.030352819235267
 236    -0.030982567602644
 237     0.071814866356542
 238      0.10803478538499
 239    0.0060056351191932
 240    0.0013684960992086
 241    -0.0028983451365039
 242    0.0073219861763954
 243    0.0023034630720709
 244    -0.0034852300681471
 245    -0.019086209569369
 246    0.0080151263618007
 247    0.0089572059349024
 248    -0.013665648706733
 249    -0.082748197458565
 250     0.011964234320052
 251    -0.0045329924766386
 252    -0.0021004888119223
 253     0.009770548402268
 254    -0.0059120547699411
 255    -0.020034733471521
 256    0.0078173531857014
 257    -0.00059218758726211
 258    -0.013953434578147
 259     0.011083751468282
 260     0.028889704180044
 261     0.025048718218384
 262     0.024788408971818
 263     -0.03651429473746
 264     -0.19560123684759
 265    -0.007870325737244
 266    -0.013467289358622
 267    -0.024173113135741
 268    -0.010129058555627
 269    -0.016930623420108
 270    -0.030373666493782
 271     0.017391002121052
 272     0.036542631964999
 273      0.06314059158429
 274     0.092876403883403
 275     0.087852274472213
 276      0.21588426717935
 277    -0.017983013831361
 278    -0.025154766655959
 279    -0.0090370117884554
 280    -0.0016542399470401
 281    -0.010257151531771
 282     0.020083882932515
 283     0.032773703171047
 284     0.011682423515004
 285    0.0024079118538659
 286     0.012137785394606
 287     0.037683453206986
 288     0.037310689053642
 289    -0.055708335599697
 290     -0.29112697441742
 291       0.0358400197557
 292    -0.013255528890287
 293    0.0068498726646418
 294     0.045259725399875
 295    -0.016729435339247
 296    0.0087428152641971
 297    -0.089652763154524
 298     0.034548962013625
 299    -0.016902345091444
 300     -0.34049244193966
 301     0.094554515472565
 302    -0.070877478205708
 303     0.013049366061257
 304    -0.020740918082908
 305     0.010440556139427
 306    -0.025947868437156
 307    0.0089465382546464
 308    -0.014954091238231
 309      0.02768254962181
 310    -0.012914559222892
 311     0.030582530511852
 312    -0.011754991293627
 313     0.015263892649746
 314     0.015989399506061
 315    -0.052700587637629
 316      0.01132342508944
 317    -0.0091970103143334
 318    0.0042329018580486
 319    0.0078575285318659
 320    -0.011813184631546
 321     0.005309723341687
 322     0.010017620562948
 323     0.019674240497111
 324     -0.01225871724654
 325    -0.018843786440815
 326       0.1005181885478
 327    -0.0056990146502309
 328    -0.069405707255889
 329    -0.0018885173112956
 330    0.0070122008150459
 331    -0.011225130119058
 332    -0.0046600748647206
 333     0.015645169307146
 334    0.0012339127294928
 335    -0.0098863212871556
 336     0.014834610739741
 337    0.0041053912021918
 338    -0.019297265749459
 339     -0.00463532891312
 340    -0.0008793829979233
 341    0.0091781329731605
 342    0.0015123039186393
 343    0.0037573705883384
 344    -0.00094324314513643
 345    0.0084130683652655
 346    0.0038496272374397
 347    -0.00096285810609145
 348    0.0086145331542006
 349    -0.0083573682389501
 350    0.0030060764545023
 351    -0.020971543598373
 352    -0.030104253089437
 353    0.0036680996069378
 354    -0.060930222387271
 355    0.0017711741868188
 356    0.0057654823309483
 357    -0.00020327642206845
 358    0.00073190133582329
 359    0.00076648498521468
 360    -0.0025099939390177
 361    -0.0061439046009292
 362    0.00020319022096118
 363    -0.00082900075796209
 364    -0.00041862762590588
 365    -0.0011994529061225
 366    -0.0011775615336802
 367    0.0016676485038202
 368    0.0096049429465682
 369    0.0020379883109357
 370    -0.00021476230145155
 371    -0.00086763277798919
 372    0.0025253343696922
 373    -0.00027660309011161
 374     -0.00110241179022
 375    -0.0059872486992391
 376    0.00045704292899562
 377    0.0022292685072911
 378    -0.013267989223203
 379    0.0020026022805933
 380    0.0061245992585239
 381    -0.00040648810976502
 382    -0.0018760683751925
 383    0.00031082308457675
 384     0.001038482413524
 385    -0.00037417866432709
 386    0.00020855594556426
 387     0.002867742156162
 388    -0.00041838931223157
 389    -0.0011023349631866
 390    0.00052929477805804
 391    0.0008307161681421
 392    0.00080738380376304
 393    -0.0013313097326576
 394    -0.0033948514693795
 395    0.00025281562224398
 396    -0.00038709541680081
 397    -0.00064744742373317
 398    0.00028954567735183
 399    -0.00050761725372923
 400    -0.00079981468324029
 401    -0.0013251403370656
 402    0.00061588453893811
 403    0.0020076251113257
 404    0.0026943846766118
 405    0.0045131630876371
 406    0.0048005711309583
 407    -9.7032241635338e-05
 408    0.00021605535760494
 409    -0.0015310475808255
 410    0.00058184997295342
 411    -0.0010807452297383
 412    6.3134417940432e-05
 413    -0.0002488194607166
 414    0.0017876887502503
 415    -0.00077158702479449
 416    0.0014657545043075
 417    -0.0037569979483174
 418    -0.0038836185506142
 419     0.010593346416187
 420     0.015850768125614
 421    0.0030054066389491
 422    -0.00078646637093398
 423    -0.0012130268223147
 424    0.0038431639849361
 425    -0.0010249202427839
 426    -0.0014267282744505
 427    -0.006696702863931
 428    0.0015357741342606
 429    0.0062664188316268
 430     -0.03626739476173
 431    0.0068557415105222
 432    -0.018027049682655
 433    0.0046029632267925
 434    -0.012726718638608
 435    0.00065622776548526
 436    0.00058004573460685
 437    0.00015490772180284
 438    -0.0066039592590057
 439     0.016951838631958
 440    -0.0011615007528946
 441    -0.0010144493061481
 442    -0.00026361880381182
 443    0.0012508802563074
 444    0.0012430745989764
 445    -0.0025755078061103
 446    -0.0034960885117845
 447    -0.00073591832790357
 448    -0.00016227005594372
 449     9.86329923765e-05
 450    -0.00092274345306561
 451    -0.00020053305975603
 452    0.00010055208009925
 453    0.0019924463066904
 454    0.00046769618407758
 455    -0.00084895877137816
 456     0.005171334758122
 457    0.0011043294129734
 458    0.0038320570256429
 459    -0.00032413897010829
 460    0.0010236623707844
 461    0.00098121253660112
 462    -0.00029645669617618
 463    0.00046010623791605
 464    0.00033426466267317
 465    -0.0013812729747936
 466    -0.00082548817915308
 467    0.00034057904539109
 468    -0.00061252979882661
 469     0.003683246986721
 470    0.0036374254159033
 471    -0.0060690396874635
 472    -0.023175392795746
 473    -0.00015932587021389
 474    0.00032419308285446
 475    0.0025076105353142
 476    -0.00020222016704117
 477    0.00041737398795486
 478    0.0032106617246522
 479    0.00027823104267188
 480    -0.00071309966891197
 481    -0.0055062846393521
 482    0.0026533740050997
 483    -0.0030299864998479
 484    -0.027101583364909
 485    -0.001975547922454
 486    -2.8195890317158e-05
 487    -0.00034945596504781
 488    0.00017977009451792
 489    0.00012168169199957
 490    0.0024633971184876
 491    0.00043410161120812
 492    0.00048399453696252
 493    -0.00031039933644064
 494    -2.4703089209167e-05
 495    -0.041651980899737
 496    -0.0071277970622239
 497      0.05400020911406
 498      0.09867601351695
 499    -0.081131396295742
 500    0.0031912167816026
 501    -0.013452759379454
 502    -0.082926743620315
 503    0.0032381101823797
 504    -0.013684214712538
 505      0.21755342821326
 506    -0.012641826073105
 507     0.045658731016045
 508      0.44131364882394
 509    0.0022307999076076
 510     0.017820310347787
 511    -0.012085153797691
 512    0.00027045913172399
 513    -0.00086467626527479
 514     0.023486647351527
 515    0.0048827398447752
 516    0.0070184464657215
 517    -0.006256789208006
 518    0.0018929587325891
 519    -0.012643978693934
 520    -0.00089321600787919
 521     0.032143024180423
 522     0.031925738551503
 523    -0.060340292741349
 524      -0.1780610897991
 525    -0.029073120059986
 526    -0.0053690389179712
 527     0.005578821368172
 528    -0.036643553013783
 529    -0.0067631763671753
 530    0.0071910173514059
 531     0.074023094639742
 532     0.013690017901021
 533    -0.011825983635431
 534      0.23823102398194
 535     0.042237563033398
 536    -0.052163648089858
 537    0.0089978111262272
 538     0.007442041960473
 539    0.0019099996986573
 540    -0.015936012586598
 541    -0.006705988359578
 542    -0.010216258059248
 543    -0.010853279729981
 544    -0.002957203246509
 545     0.018833949287401
 546    0.0085449411439617
 547    -7.4087024116754e-05
 548    -0.00024730223532616
 549    0.0039567978027281
 550    -0.0045241758543391
 551    0.0037272505442713
 552    0.0030359467341882
 553    0.00063463233142287
 554    0.0047847003327669
 555    0.0037870073163597
 556    0.0008378171352898
 557    -0.0079709114322865
 558    -0.0089956197989051
 559    -0.0010102666121699
 560     -0.04602948430392
 561    -0.013880847674683
 562    -0.0069673334115695
 563    -0.0010151640107574
 564    -0.0020332412723581
 565    0.0017420361442367
 566    -0.0029506319821427
 567     0.010119490291501
 568    0.0017073266863387
 569    0.0030652271800795
 570    -0.0027959247637901
 571    0.0042014522778299
 572    -0.012224316619386
 573    0.0089997749509602
 574    0.0090997087095792
 575    -0.023194628165911
 576    -0.012426122677526
 577      0.00749775406843
 578    -0.0014515599534566
 579    -0.0023575460420908
 580    0.0095538642521275
 581    -0.0017789401256486
 582    -0.0030628148819209
 583    -0.018072087179772
 584    0.0046168175476707
 585    0.0040685796272483
 586    -0.065111008143923
 587     0.005792073456932
 588     0.021512304120598
 589    0.00037283793196122
 590     0.012839584504017
 591    -0.00024456083420942
 592    -0.0016719805103481
 593    0.0013094298167573
 594    -0.00036064365433275
 595    -0.016840785794374
 596    0.00046063187933127
 597    0.0025655108062944
 598    -0.0021730814394077
 599    0.0067956358650329
 600    0.0067850505715044
 601    -0.013991814148949
 602     -0.02186845382832
 603     0.007877147686968
 604     0.002325995223749
 605    0.0020567310903891
 606      0.01000653253572
 607    0.0029879915830763
 608    0.0025674560651118
 609     -0.01952794738386
 610    -0.0046850862427484
 611    -0.0061948221921589
 612    -0.065792430491456
 613    -0.023555957813801
 614    -0.0080683959140855
 615    0.00058812394157607
 616    -0.00042430569088587
 617    -0.0017136238365023
 618    0.0010943086662873
 619    -0.014185185203617
 620    -0.00089821226627752
 621    0.0006863435394271
 622    0.0024865015788348
 623    -0.0011384715066097
 624      0.01833764014842
 625    0.0014206243318024
 626    -0.0022741647048079
 627    -0.030456433382284
 628    0.00047201748390534
 629    -0.00066413017626746
 630    0.00095599767138667
 631    -0.0075231362887517
 632    -0.0069602948855291
 633     0.016749250362762
 634     0.000191876478271
 635    -0.00025387741481302
 636    -1.3023566163448e-05
 637    -0.00012492445202547
 638    -0.00035544568598576
 639    -0.00057789395254235
 640    0.0011296122007228
 641    -0.023715042167235
 642    0.0048735824436071
 643    -0.00039804322549252
 644    -0.0029211106198535
 645    -0.0091381335315852
 646    -0.0037584552894885
 647    -0.0071898189240073
 648    -0.00029284481335648
 649    0.00027964305483611
 650    -0.00020881396522022
 651    -0.00013522877985389
 652    0.00040978841843603
 653    -0.00011987449051342
 654    -0.010061103952784
 655    -0.00036563565771831
 656    -0.0015421158124394
 657    -0.002164293425591
 658     0.001424733732954
 659     0.015733444225537
 660    -0.0004444892585592
 661    0.00079557591791326
 662    -0.00063807749924657
 663      0.00109651584224
 664     0.035381802050424
 665    0.00088595609581969
 666    0.00071238153488469
 667    0.0019204564014086
 668    -0.0029633725477515
 669    -0.0060382990136279
 670    2.9677084986729e-05
 671    -0.00040008022915068
 672    -8.8172086056443e-05
 673    0.0038799211474793
 674     0.023693084626895
 675    -0.00026768153230844
 676    6.6101050660701e-05
 677    0.00028419280677589
 678    0.0001666596762748
 679     0.020201341454938
 680    0.00047055696435453
 681    0.0001875767874874
 682    -1.2715605429957e-05
 683    0.0072803182331209
 684    -0.010826033663723
 685     -0.10779817105008
 686    -0.005420444620081
 687     0.015496209813813
 688    -0.011164595527853
 689    -0.041838176376595
 690       0.0294351447917
 691    -0.032418592034816
 692    -0.00041863546974918
 693    0.00023219533783449
 694    -0.0006174003808915
 695    -0.00036368252276806
 696    0.00035628214441594
 697     0.011581341384277
 698     0.014247053105339
 699      0.17088073902755
 700    0.0060591827225522
 701    -0.018698723535462
 702    -0.017449416872325
 703    -0.025125836309162
 704     0.057870423186323
 705     0.057490890894692
 706    0.00046101851980877
 707    0.00070260262408133
 708    0.00063071710312737
 709    0.00030347100382973
 710    -0.00045599286452231
 711    -6.7978253599676e-05
 712     0.071146332170721
 713    -0.00019910325419104
 714    0.00034795982841768
 715    0.0002202108298458
 716    -0.0079725721857576
 717    -0.035794570173554
 718    -0.00024612838349807
 719    -0.00086087811592978
 720    -0.00070674346119542
 721    -0.014187741790123
 722     -0.22072549024267
 723    0.00098069937937225
 724    0.0014259861158355
 725       0.0029804840065
 726    -0.00044813191106845
 727     0.043647311239624
 728    -9.8024149610324e-05
 729    -0.00037369582437158
 730    1.347414099471e-05
 731    0.00080647175783094
 732    -0.021792283791305
 733    0.00014745832435602
 734    0.0008798156786916
 735    -0.00056711121616136
 736    0.0039492167184137
 737     0.082261673443226
 738    -0.00041464575918379
 739    -0.0016071170313306
 740    0.0011873823011178
 741     -0.04674806162428
 742     0.064397836225954
 743      0.98802922854616
 744    -0.015827516724805
 745     0.037444553719462
 746     0.012455815944385
 747     -0.10550083274748
 748      0.19125800378053
 749     0.087036227915899
 750    -0.00044675722956635
 751    -0.0007203534954022
 752    0.0018161535183019
 753    -0.0010358217563276
 754    -0.0018229898542703
 755     0.033087093450375
 756      0.04990239608656
 757      0.44907857243489
 758    -0.014800757384759
 759     0.018514007679044
 760     0.018469783462995
 761     0.069703377062903
 762    -0.074850365818302
 763    -0.073955185827722
 764    -0.00073672208357855
 765    -0.0021548456173675
 766    0.0028884820360165
 767    -0.0012095986962042
 768    -0.0028026025886441
 769    -0.026921740551997
 770     -0.24137597549384
 771    -0.0001186269127765
 772    -0.0016379522984867
 773    -0.00091692591992308
 774    -0.032130386289772
 775     -0.29907037442327
 776    0.0044812883664782
 777    -0.0028898198922284
 778    -0.0040900776586294
 779    -0.030144698131453
 780     -0.22518956147353
 781    0.0015115614313732
 782    -0.0020017394663683
 783    -0.00071259142324482
 784    -0.0026728740524806
 785     -0.49433283798978
 786    -0.0012432054288837
 787    0.0014363063117027
 788    -0.00058410203427325
 789    -0.0023960861739806
 790     -0.45302680796933
 791    0.00043173619996828
 792    0.00088864833277021
 793    0.00092858783477905
 794    -0.0072122121325057
 795     -0.42808758355364
 796    -0.0007428278272042
 797    0.00018251608998935
 798    0.0010651805240256
 799    -0.0005183230468155
 800    0.00083293720135997
 801    0.0068904727456845
 802    -0.0017057729173976
 803    -0.0011140106987147
 804    0.0017395484491371
 805    -0.005654087135092
 806    -0.0019549133805473
 807    0.0032379361863289
 808    -0.00014733014236538
 809    5.9618965056831e-06
 810    2.4902808228364e-05
 811    4.3840836188695e-05
 812    -1.2767446955934e-05
 813    5.1727251004358e-05
 814    -0.00022109067084823
 815    0.0044496714503638
 816    5.3169236798479e-05
 817    -4.3851074635521e-05
 818    3.8663029062342e-05
 819    -0.0012752567008091
 820    0.0015932653992007
 821    -0.0030518351366823
 822    -0.00010326469452889
 823    -0.00016802508428554
 824    5.3012599856823e-05
 825    6.9154173535961e-05
 826    0.00014408216938643
 827    -0.0027335370612718
 828    -0.015259682793981
 829    0.00038416563374793
 830    -0.00038498418943343
 831    -5.3836162738964e-05
 832    0.00012084922957713
 833    -0.0018168293246776
 834    -0.00025070759970804
 835    0.00020246069215231
 836    -0.00015373001454837
 837    0.0004286474361632
 838    0.00076605335640697
 839    -4.126225465542e-05
 840    -8.9676386761208e-05
 841    -8.7450178881137e-05
 842    0.00037002908921061
 843    -0.012456128312787
 844    1.7989811344663e-05
 845    -6.5517490479063e-05
 846    -0.00022908270333454
 847    0.00072800729701234
 848    -0.00060695263588041
 849    -7.5814225851085e-05
 850    6.3388127907392e-06
 851    -4.2375300825328e-05
 852    -0.0016330374852261
 853    0.0038062216266267
 854    -3.1533616218104e-05
 855    1.5107660040448e-05
 856    0.00013579797264218
 857    0.0052348742445322
 858    -0.0054848954411787
 859     -0.10456200131618
 860    -0.00016127017214648
 861     0.010153555522635
 862    -0.0066551827587558
 863    -0.012024385784222
 864      0.02938260399172
 865    -0.012075746531804
 866    0.00031146458007479
 867    -0.00034847921560554
 868    -0.00018581151268064
 869    0.00023998680565045
 870    -0.00039827253238374
 871    -0.0067240182242602
 872    -0.010559879287857
 873    -0.091024329893236
 874    -0.0043005127213787
 875    0.0066798574175469
 876    0.0051257224474744
 877    0.0011289350614379
 878    -0.013195676924524
 879    -0.017251874221781
 880    -0.00016431849569988
 881    -2.2350308858054e-05
 882    -0.00012294595077017
 883    9.3266506203893e-05
 884    0.00038420236740341
 885    -0.00072892852610523
 886    0.0044799533303971
 887    -0.00054655533345602
 888    -0.00062214045690143
 889    -0.00033293790114431
 890    -0.00067261158053669
 891      0.10058302443416
 892    0.0012890449221656
 893    -0.00037961013940309
 894    -0.00045111687268215
 895    0.0045620735055202
 896     0.059497489027805
 897    -0.00045748492320385
 898    -0.00030939374791633
 899    7.427745746371e-06
 900     -0.00678611574403
 901     0.061911909439233
 902    -0.00036416167179797
 903    0.00062223080558372
 904    0.00037081558652268
 905    -0.00015329916777091
 906     0.056406516286161
 907    -7.6520319850851e-05
 908    -0.00051175508116359
 909    7.0327875285637e-05
 910    0.0045951285611328
 911     0.027756293573957
 912    0.0001011156066237
 913    0.00028963133584629
 914    4.6922966003441e-05
 915    0.0010689577759787
 916    0.0018561029167132
 917    -0.044401845942449
 918    -0.001550864428366
 919    0.0031203259489108
 920    -0.0013712820136374
 921     0.013626738157625
 922    -0.0089638458298187
 923     0.018813952835587
 924    5.9470287094467e-05
 925    0.0004343005274908
 926    0.00032382759793668
 927    1.8240610328562e-05
 928    -0.00010900108411045
 929    -0.0061808943211777
 930    -0.0072236882712108
 931    -0.094154776776823
 932    0.0028406581014545
 933    0.0039818941605369
 934    -0.0045895946283399
 935    -0.019872093989221
 936     -0.01892487732897
 937     0.011906215679513
 938    0.00033709774432297
 939    0.0004547377822692
 940    -0.00012285311428328
 941    -0.00011099050306609
 942    -0.00045096498583788
 943    0.0083037008011372
 944     0.088969418212174
 945    0.0012787128693787
 946    0.0011445214303542
 947    -0.0013956886720795
 948     0.008017117354795
 949      0.05695347795484
 950    -0.0012190441513439
 951    -0.0010116608895435
 952    -2.3352387279388e-05
 953    0.0048904703916417
 954     0.045456074029284
 955    -0.00066393257801929
 956    -9.947092227537e-05
 957    0.00045277192171647
 958    0.0028366870633385
 959     0.013970443814971
 960    0.00072713410179888
 961    -0.0007288345291328
 962    -8.5812051680982e-08
 963    -0.0067261085687045
 964    -0.0064170181221461
 965    0.00033388114848608
 966    -0.00019006769643016
 967    0.00048957017235705
 968    0.0041468052265129
 969     0.021535664310658
 970    0.00023910887189623
 971    0.0008428975498172
 972    -0.00031621331079882
 973     0.003177088138868
 974    -0.0047209484428398
 975    -0.055369336454288
 976    0.0061739837499944
 977    0.0013550975985699
 978    0.0019392791570895
 979     0.016582946411959
 980    0.0019540794946316
 981     0.012591264220119
 982    -0.00020604039223023
 983    -0.00017340037444907
 984    -1.8229160187074e-05
 985    -0.00014279629698826
 986    0.00013434030052102
 987    0.0023241304776668
 988    0.0023671277017053
 989     0.037896459777652
 990    0.0020640952191768
 991    -0.0022803148992523
 992    -0.00056101502545354
 993    -0.0052353300324303
 994    0.0026470251091026
 995    -0.0019630360446296
 996    -0.00042938042042946
 997    6.4272379428891e-05
 998    -0.00020785769173097
 999    -2.4800106723252e-05
 1000    8.2039483321646e-05
 1001    0.00044134481050551
 1002    -0.020372927337446
 1003    0.00011503506910163
 1004    -0.00037829603852893
 1005    0.00020378523836917
 1006    -0.0014481335203651
 1007     -0.01019400778815
 1008    0.0001351819909954
 1009    -2.7205994854304e-05
 1010    -0.00011104959336285
 1011    -0.00064239207505925
 1012    -0.021043019656396
 1013    0.00010029830419207
 1014    0.00019198123953211
 1015    -0.00039601012769433
 1016    0.00018515448827239
 1017    0.0058851599375328
 1018    -2.4644859704918e-05
 1019    -3.0356135688767e-05
 1020    -0.00026998500510265
 1021    0.0020246578740289
 1022     0.012875716427528
 1023    6.4621242373703e-05
 1024    -7.3337226845713e-05
 1025    -2.5023866304514e-05
 1026    -0.0012599706210001
 1027     0.052757898858227
 1028    -6.9697318697488e-05
 1029    -0.00037794882020912
 1030    0.0004005122146883
 1031    0.0032530930116913
 1032    -0.006336493000756
 1033    -0.048257176747281
 1034    -0.0027587350359464
 1035    0.00075891338217452
 1036    -0.00088990026940192
 1037    -0.014860114027268
 1038    -0.0038776643311256
 1039    -0.0050631166470224
 1040    -0.00010174718237912
 1041    0.00047700454479236
 1042    0.00029250753525164
 1043    -0.00017573295174406
 1044    0.00019139835873059
 1045    -0.0057215449089826
 1046    -0.0059751619406022
 1047     -0.10244793100904
 1048    -8.0431677602299e-06
 1049    -0.0018715694977926
 1050     0.006499697992956
 1051    0.0096421854079562
 1052     0.011035107138854
 1053    -0.024623126858258
 1054    -6.4186242550941e-05
 1055    0.00051480255462942
 1056    0.00017867980626087
 1057    -0.00021308826997759
 1058    -0.00011978391559034
 1059    0.0045355837409281
 1060     0.015227644399284
 1061    0.00035377501495352
 1062    -0.00038623581449429
 1063    -9.7447384067971e-05
 1064    0.0039824094621434
 1065      0.09578773583209
 1066    0.00095783316167113
 1067    0.00059528542319604
 1068    -0.00093970338339885
 1069    0.0066903805567713
 1070      0.07734482834321
 1071    -0.00020178483387713
 1072    -0.00043264295012358
 1073    -0.0012032629289719
 1074    -0.00090789372940901
 1075    -0.0026951869601354
 1076    -0.000300514426434
 1077    -0.00024724303367011
 1078    -0.00025703051346844
 1079    -0.0012920232826369
 1080     0.031631036930957
 1081    1.3806758158086e-05
 1082    -5.0166317998648e-06
 1083    -0.00021856062563822
 1084    0.0016089970147389
 1085     0.026073029135872
 1086    -2.469296426857e-05
 1087    -5.9843948653919e-05
 1088    0.00046229018927666
 1089     0.006876845232022
 1090    -0.011178685546249
 1091    -0.092301558473011
 1092    0.0064344560233235
 1093      0.02373463803214
 1094    -0.0056696015494929
 1095     0.032341709282544
 1096     0.061726107531243
 1097     0.012775828739803
 1098    -0.00059594897256291
 1099    -0.00024780713741677
 1100    0.00015061024077732
 1101    -0.00044203029941032
 1102    -0.00020894306603595
 1103    -0.00090246577999227
 1104    -0.0023672579905513
 1105    -0.0084564933537599
 1106    0.0068681248823287
 1107    -0.0030733264289856
 1108    -0.004351153674838
 1109    -0.031377518502623
 1110     0.013835554338113
 1111     0.010144513839136
 1112    0.00035386742903176
 1113    0.00075334982987562
 1114    0.0005229643154566
 1115    0.00053578052440509
 1116    -0.00063629963402264
 1117    0.0033486177663703
 1118     0.087854536083317
 1119    -0.0012329808927327
 1120    0.00064317756276181
 1121    7.8822990458055e-05
 1122    -0.0021092868964647
 1123      -0.0302596737869
 1124    -0.0013386060475556
 1125    0.0001772011743699
 1126    -0.0016680849734711
 1127    -0.0037867984955509
 1128    0.0038780884546743
 1129    0.00038271003893714
 1130    -0.00047937677859818
 1131    0.00053610301117813
 1132    0.0043415197507875
 1133      0.11291210943972
 1134    -0.0010536551806504
 1135    -0.0013206421080234
 1136    -0.00023936595643988
 1137    0.0066070369875731
 1138    -0.038689713755764
 1139    -0.0004741713510573
 1140      0.00147362285135
 1141    -0.00036127666956378
 1142    -0.0062105794393484
 1143     0.026649317189658
 1144    0.00096260514068802
 1145    -0.00057440675595936
 1146    -0.00026344187402012
 1147    -4.6036893771328e-05
 1148    0.00033979694418304
 1149    -0.0010656702248464
 1150    -0.00022859482037478
 1151    0.00064922527520127
 1152    0.00056631253909532
 1153    -0.0012016830762877
 1154    0.0021702848233348
 1155    9.6878478977294e-05
 1156    -1.5831571938003e-05
 1157    1.7128993293005e-05
 1158    7.9190935426083e-06
 1159    -4.4081458764013e-05
 1160    -9.4298746847125e-06
 1161    -0.00061041436540159
 1162    -0.0010725735902988
 1163    -0.006598242219898
 1164    -0.0012584266057492
 1165    -0.00056107570187178
 1166    0.00042876581023278
 1167    0.0024116411313878
 1168    0.0017582175661583
 1169    0.00028774623471532
 1170    1.6426789441539e-05
 1171    -6.2681673873687e-05
 1172    2.4806143306736e-05
 1173    1.5159496060618e-05
 1174    8.1220203743374e-06
 1175    -9.7787065068063e-05
 1176    0.0023803471422271
 1177    0.00010091363538448
 1178    -0.00011231297786368
 1179    -9.1636790637407e-05
 1180    0.00044502168923613
 1181    0.0070834188155537
 1182    -9.2242906614207e-05
 1183    3.4115691526062e-05
 1184    0.00010661446702151
 1185    -0.00036643907432003
 1186    -0.0014235129319978
 1187    -9.944295689876e-05
 1188    7.1148862124578e-05
 1189    8.6556003963761e-05
 1190    -0.00015105566452178
 1191    0.0014352935938986
 1192    -1.2297872025985e-05
 1193    -2.6317160717178e-05
 1194    2.0695922740149e-05
 1195    0.00032550537248501
 1196    0.0018978450705891
 1197    -4.0090445515758e-05
 1198    2.5152512495539e-05
 1199    1.709195070592e-05
 1200    -0.00027160096063456
 1201    -0.00061863651857918
 1202    1.6365085823253e-05
 1203    4.2456497327944e-05
 1204    1.6629491332983e-05
 1205    -0.00012979428924512
 1206    -0.00024648731013156
 1207    0.0034528105923366
 1208    -0.0027626392567522
 1209    -0.0015767716427999
 1210     0.003560894524789
 1211    -0.010924211382751
 1212    -0.0023099706369313
 1213     0.011547955983196
 1214    0.00018427487374254
 1215    -5.931341933637e-05
 1216    2.0257917542382e-05
 1217    -5.6657918115894e-05
 1218    1.236209823972e-05
 1219    -0.00045525411787568
 1220    -0.00089194450055601
 1221    -0.0037572679036789
 1222    -0.00089758603515783
 1223    -0.00032690111020383
 1224    5.2576914907427e-05
 1225    0.0077265287343799
 1226    0.0024455336683944
 1227    0.0036958253111729
 1228    0.00020255233973974
 1229    -0.00033416038980128
 1230    -0.00016759666404706
 1231    4.9353405544112e-05
 1232    0.00010995903976954
 1233    0.0013009276160464
 1234     0.011873878908492
 1235    0.00022098431624988
 1236    0.00010496008465072
 1237    0.00055426725162479
 1238    -0.0035412054420273
 1239    -0.022279128434841
 1240    6.0607565115187e-05
 1241    -0.00048887127238507
 1242    -0.0005900722680655
 1243    0.0021577694851057
 1244    0.0096865310928799
 1245    0.00014089833543768
 1246    -0.00012843290712199
 1247    0.00010278641176454
 1248    0.0002004079094479
 1249    -0.023821103195922
 1250    0.00028098851270807
 1251    -0.0001466875767828
 1252    6.6403079907986e-05
 1253    -0.0014446018228544
 1254     0.014217748120237
 1255    -0.00031296832662565
 1256    9.8263326671693e-05
 1257    8.3449127922417e-07
 1258    0.00043659697214275
 1259    0.0040764304396653
 1260    6.0830101965724e-05
 1261    1.7189429480724e-05
 1262    6.1768840517914e-05
 1263     0.003339980174731
 1264    -0.0039626618289478
 1265    -0.070049579125969
 1266    -0.0055316224856437
 1267    0.00056997017694455
 1268    -0.0059024353484019
 1269    -0.026536961684807
 1270    -0.0026967284427676
 1271    -0.010841546857554
 1272    8.8770716143177e-05
 1273    -0.00032859970272832
 1274    -0.00011955887522798
 1275    -0.00036723134150048
 1276    -4.415866550792e-05
 1277    0.00040950918258305
 1278    -0.00088691549032001
 1279     0.015720054402456
 1280    -0.0012638993791323
 1281    -0.00047381475246861
 1282    -0.0019280130643862
 1283    0.0045661101613083
 1284    -0.0009372220569384
 1285    0.0084242371132861
 1286    0.00020455627068766
 1287    0.00025602677694699
 1288    -0.00017152275019044
 1289    -0.00028373802961573
 1290    7.3477874928202e-06
 1291    0.00065027059737263
 1292    0.0074464044197121
 1293    6.5339121253985e-05
 1294    9.7813721409531e-05
 1295    -0.00013293508158758
 1296    -0.0001277083388908
 1297    -0.023972356950507
 1298    -0.00022871904620464
 1299    -0.00019295292562324
 1300    -0.00025992568830537
 1301    -0.0010716246159652
 1302    -0.009037666611154
 1303    0.00047354200539786
 1304     0.000231594902049
 1305    -8.1186288447464e-05
 1306    0.00046745195073586
 1307    0.0084163181593706
 1308    0.00047279092150489
 1309    2.5908876324568e-05
 1310    -0.00013618199039958
 1311    -0.0033670246398117
 1312      0.06828810467561
 1313    -0.00076171616958862
 1314    -0.00037302424343313
 1315    6.3454768543505e-05
 1316    0.0032809173148661
 1317     0.022478956618237
 1318    2.3204503613793e-05
 1319    -0.00020934727907041
 1320    -1.1018426473072e-05
 Sym= A
 Ene=    0.1035669974
 Spin= Alpha
 Occup=    0.00000
   1    -0.053375419849026
   2    -0.0092161690530047
   3     0.069977056089804
   4      0.13224383615777
   5     0.037346291737034
   6     0.014742317748282
   7     0.073736399594442
   8     0.038151225250246
   9     0.015048937567395
  10     0.075362237373456
  11     -0.10436234378566
  12     -0.04233265526281
  13     -0.20032743748465
  14     -0.19635956809083
  15    -0.070755298276377
  16     -0.39649000678506
  17     0.015349847107278
  18    0.0038034634398333
  19    -0.0032573549650128
  20     0.016364207273421
  21    -0.0020141332840136
  22    -0.0082193091091235
  23     -0.01293719107424
  24    -0.0017516272170672
  25    -0.0025914337462791
  26    5.7786317890872e-06
  27    -0.026155912437884
  28    -0.026152447933161
  29     0.047544513312567
  30      0.16897254990301
  31    -0.0037506018706765
  32    0.00052557817326841
  33    -0.0013493542476856
  34    -0.0048156613749138
  35    0.00065611272181642
  36    -0.0015982013682529
  37    0.0057821323407697
  38    -0.0014485123624671
  39    0.0061153983799345
  40     0.060349511319155
  41    -0.0037277928633607
  42    -0.0079311354308725
  43    -0.0070669581649109
  44    -0.017225309548427
  45    -0.00027346343241869
  46     0.019976705044411
  47    -0.0011629280547782
  48    0.0077069712328692
  49      0.02230506431557
  50    -0.00029915525881343
  51    -0.025672138989727
  52    0.0010670897081894
  53    -0.0044658278863047
  54    -0.0046003008228781
  55     0.010760778265486
  56      0.02857090844309
  57    -0.0036000593652485
  58    0.0091508896822779
  59    -0.0036292673421239
  60    -0.0045088415293288
  61     0.011488894874893
  62    -0.0046590745221049
  63     0.010331279760179
  64    -0.024909585721832
  65    0.0080225177693552
  66     0.021964611129584
  67    -0.063143158832734
  68     0.041005742766352
  69    -0.0044006388159311
  70    -0.00016346135281266
  71    -0.0095731632006429
  72    -0.0068118519639131
  73    -0.0044572319863281
  74    0.0059858132004665
  75    -0.0003213782657342
  76     0.012516928593659
  77     0.008985536024023
  78    0.0061637184906118
  79    -0.047330792663732
  80    -0.047023988614039
  81     0.073540869513448
  82      0.35987378148056
  83     0.001984221271593
  84    0.0048530404284378
  85    -0.0096691945485422
  86    0.0026142908265536
  87    0.0061980819435922
  88    -0.012171708398192
  89     -0.00217442472248
  90    -0.010763795734984
  91     0.023980217655127
  92    -0.043120153745678
  93    -0.049683850213428
  94      0.10412454613894
  95     0.044898559169993
  96     -0.01885900464278
  97    -0.0031678911607746
  98    0.0028178032628976
  99    0.00020521123739138
 100      -0.0587653337541
 101     0.024245062180023
 102    0.0034602749899202
 103    -0.0043588590069209
 104    -0.00057999250553706
 105     0.024878422363712
 106     0.024861940044856
 107    -0.050815425730976
 108     -0.11206161012103
 109     0.016617690599471
 110    -0.0038476238685391
 111    -0.0074336859183808
 112     0.020910796355567
 113    -0.0048221406166091
 114    -0.0094993459556404
 115     -0.04215486636968
 116     0.010532529185436
 117     0.017132793590355
 118     -0.13634075650245
 119     0.024615441841096
 120     0.071394688790133
 121     0.003281821262209
 122     0.013999365282315
 123    -0.0013147673125118
 124    -0.0080399391829767
 125    0.0040955813977337
 126    -0.0025635127519842
 127    -0.017753681419657
 128    0.0016918951297434
 129    0.0085891822778081
 130    -0.0049231673062061
 131      0.01143918811876
 132     0.011716129202347
 133    -0.031076516352004
 134    -0.022201468410718
 135    -0.0057458292781699
 136      0.00304051671214
 137     -0.00697710732798
 138    -0.0072330462112997
 139    0.0039093714241515
 140    -0.008970128882047
 141     0.015639001743222
 142    -0.0058920210287355
 143     0.014998683889374
 144     0.038171401193242
 145    -0.031896908953034
 146     0.069491361914099
 147    -0.0014517423614647
 148    -0.0020437539735611
 149     0.012414388497351
 150    -0.0013490302611737
 151    0.0069341932313909
 152    0.0031731300664541
 153    0.0021239050197384
 154    -0.016636321746863
 155    0.0024154670471916
 156    -0.0098682275138994
 157     0.032519431048031
 158     0.032412440535825
 159    -0.064259311761872
 160     -0.16237373713117
 161    -0.0087516659067748
 162    -0.0059753583865134
 163      0.02508982760822
 164    -0.011170569928753
 165    -0.0074775441120204
 166     0.031627843127377
 167      0.02022640604794
 168     0.016090299117802
 169    -0.063379999796647
 170     0.079339854867282
 171     0.044252595791006
 172     -0.20742502235541
 173    -0.013609296020705
 174      0.01224942254641
 175    0.0072637897802812
 176    -0.0007881387240408
 177    -0.0038075033442065
 178     0.015442067388855
 179    -0.016043824533384
 180    -0.0089931648271727
 181    0.0011348771890314
 182    0.0054570203314549
 183    -0.0093190726604847
 184    -0.0018437548394662
 185     0.016879963480884
 186     0.019700733280608
 187    -0.076982425500004
 188     0.010828317671453
 189    -0.094362532210396
 190    -0.078866010862315
 191      0.01105730750767
 192    -0.096709180602552
 193      0.19746645536203
 194    -0.030515935782267
 195      0.23804739720997
 196      0.58813141879982
 197    -0.065181295968837
 198      0.74092240271468
 199     0.033932131604817
 200    -0.00062036886686559
 201    0.0037924893018146
 202    -0.015609387320947
 203    0.0021804842383725
 204     0.003895080876345
 205    0.0014916107380746
 206    0.0051282197112642
 207    0.0013801960080233
 208    0.0024261399354679
 209     0.039515013700189
 210     0.039288965697805
 211    -0.063836948746051
 212     -0.28253850225482
 213    -0.0063775429464855
 214    -0.0062618982978357
 215    0.0045646997797325
 216    -0.0080772398612125
 217    -0.0078723045421862
 218    0.0058997010677646
 219     0.014548865646477
 220     0.017167504515994
 221    -0.0079677739977776
 222     0.076273292720356
 223       0.0424149755038
 224    -0.070743274470539
 225     0.012281743528537
 226     0.025210391328954
 227    0.0020778743481051
 228     -0.02967054149509
 229    -0.0027450131155614
 230     -0.01570872093108
 231    -0.032391395505744
 232    -0.0033452269902481
 233     0.039991400591182
 234    0.0037086101520504
 235     -0.01106449511381
 236    -0.011285154521958
 237     0.025109779101268
 238     0.044999807695218
 239    0.0033460371693238
 240    0.00015186031394927
 241    -0.0013747209343059
 242    0.0043468241537959
 243    0.0004220926393515
 244    -0.001454416697352
 245    -0.0057314562047486
 246    0.0044216522043384
 247    0.0089170636426751
 248     -0.05723395434969
 249      -0.0323264866318
 250    -0.034291158805467
 251    -0.0034782923598293
 252    -0.0003962722628618
 253     0.016643808563606
 254    0.00065309771000765
 255     0.013563699367352
 256    0.0043640823703488
 257    -9.5019802348329e-05
 258    -0.022243099259131
 259    5.5746551574919e-05
 260    -0.017417281542916
 261     0.042785488699667
 262     0.042084010394152
 263    -0.055152303650134
 264     -0.35410680237314
 265    0.0056800968290266
 266    -0.0068513998242691
 267    -0.035145952797206
 268    0.0073850298707273
 269    -0.0087052606260312
 270    -0.044609449949736
 271    -0.010327376556319
 272     0.016791067500683
 273      0.08216874013693
 274    -0.071536127670875
 275     0.058892729371716
 276      0.38181628816591
 277    -0.030681585225113
 278     0.011311045791215
 279    -0.008947561727946
 280    0.0012639978267329
 281    -0.00010064013771793
 282     0.034868590951855
 283    -0.014551991243389
 284     0.012324660527659
 285    -0.0018221879100275
 286    -0.00049931079923158
 287    -0.037989498794455
 288    -0.037412036185112
 289     0.051766258983145
 290      0.29357086795638
 291     -0.02678177566664
 292    -0.0023049144201456
 293    0.0030088062413473
 294     -0.03417385882926
 295    -0.0029021742809139
 296    0.0039880964061269
 297     0.059513451300124
 298     0.005552709826284
 299    -0.0045011851437413
 300      0.31064898725145
 301     0.015447292893488
 302    -0.051300300629379
 303    -0.014175935266713
 304    -0.014101944105156
 305    0.0030150425850607
 306      0.02098297135722
 307    -0.0035622421042331
 308     0.017165828456862
 309     0.018865823562041
 310    -0.0037516633632324
 311    -0.024860226573759
 312    0.0059124309659435
 313    0.0063453217780663
 314     0.006541402425243
 315     -0.01767767299661
 316    -0.013797513171789
 317    0.0056473983217097
 318    0.0011302776469345
 319    0.0081991416232052
 320     0.007250561694709
 321    0.0014556027102902
 322      0.01057169819152
 323    -0.012396533358085
 324    -0.0021657852374822
 325    -0.016869975024034
 326    -0.063748226336397
 327    -0.011247199323304
 328    -0.095761165251394
 329    -0.0069214620436378
 330    -0.0014792806876908
 331    -0.018367261823192
 332    0.0020663651215419
 333    -0.013347529434045
 334    0.0099906753027528
 335    0.00081785979986069
 336      0.02318987123651
 337    -0.0037357465671877
 338     0.016733739585035
 339    0.0047034238690221
 340    0.00077732533139133
 341    -0.0049822598639536
 342    -0.014480787187546
 343    -0.041158975803094
 344    0.0016086176316324
 345    -0.048979248956777
 346     -0.04213789298068
 347    0.0016394476970646
 348    -0.050140197100308
 349      0.10449220622674
 350    -0.0047937604892299
 351       0.1258199008227
 352      0.27713838578308
 353    -0.0095503703998403
 354      0.31915722831156
 355    -0.0093069790147749
 356    -0.00019656696389003
 357    -0.0025908532524131
 358     0.003479929516964
 359    -0.0027922117767366
 360     0.010832693933856
 361    0.00080206140382787
 362    0.0018557703976649
 363    -0.0054734266730159
 364    0.0028020629102219
 365     0.014983456808157
 366     0.014889646280729
 367    -0.026526164884509
 368    -0.092864741630542
 369    -0.013872727950641
 370    0.0018764194002151
 371    0.0028643900946299
 372    -0.017529247476735
 373    0.0023890742715828
 374    0.0036615666162511
 375     0.035032826312432
 376    -0.0046978153844018
 377    -0.006659839553988
 378      0.12216415485277
 379    -0.014747964302113
 380    -0.026288215225554
 381    0.0052267480571397
 382    0.0060869619493856
 383    -0.0011613651873742
 384    -0.0085915901045735
 385    0.0029301514170397
 386    -0.0063520793370296
 387    -0.0079881754018871
 388    0.0013745123837857
 389     0.010444034243767
 390    -0.0041849331843652
 391    -0.0002716492370889
 392    -0.00020714163026742
 393    -0.0010546298786371
 394    0.0047549481185308
 395    0.0023329524875623
 396    -0.00023147702717374
 397    0.0027181758539797
 398    0.0029878572076621
 399    -0.0002803043771092
 400    0.0034967981907246
 401    -0.005028364290145
 402    0.00092965917336252
 403    -0.0056657159659543
 404    -0.029532620308773
 405    -0.00069691786243644
 406    -0.034775966300813
 407    0.0015874530959112
 408    0.00015555046616941
 409     0.009435190553063
 410    -0.00074721201555166
 411    0.0080261969461289
 412    -0.001837928531881
 413    -4.1267458604174e-05
 414    -0.012093735727457
 415    0.00094099261267518
 416    -0.010164357339283
 417     0.033462646454429
 418     0.033602910681807
 419    -0.063727109322928
 420     -0.20740022987751
 421    -0.0032884557614949
 422    -8.9438448163265e-05
 423    -0.0015997516505422
 424    -0.003939612802416
 425    -0.00014606046718012
 426    -0.0021092623932427
 427     0.013731329630361
 428    -0.00038905642606475
 429    0.00062129145460392
 430    -0.0082411308175611
 431    0.0020292971621626
 432     0.041639486906396
 433    -0.024365146037328
 434     0.017748948602344
 435    5.4997784478649e-05
 436    -0.003976989717147
 437    -0.00093561082246965
 438     0.030715903425251
 439    -0.024157284488772
 440    -0.00028212867953943
 441    0.0066189448332086
 442    0.00031540221838996
 443    0.00053957566991319
 444    0.0005658835459201
 445    -0.0020520503608099
 446    0.0012391910175293
 447    0.0016778643529845
 448    -0.00033266492677774
 449      0.00242510604251
 450    0.0022275274412657
 451    -0.00041913242657166
 452    0.0031462832690858
 453    -0.0017248302909149
 454    0.00080223420798782
 455    -0.0043522113259776
 456    -0.031317392395641
 457     0.003489566583246
 458    -0.032804718702524
 459    -5.9613418367002e-06
 460    -0.00012292958320008
 461    -0.0059798651285708
 462    -0.0010655413648453
 463    -0.0047295062396998
 464    1.2689860872386e-05
 465    1.0323991987334e-05
 466    0.0070429830101328
 467    0.0012847506379867
 468    0.0052996693320907
 469    -0.017122003922838
 470     -0.01700151696177
 471     0.029754024599364
 472      0.10953880563948
 473      0.00271714067966
 474     -0.00157149625909
 475    -0.016532976576396
 476    0.0034556569731173
 477    -0.0020097213781839
 478    -0.020895274674204
 479    -0.0066429758988023
 480    0.0038489630127446
 481     0.041565813780381
 482    -0.024288314229926
 483     0.012079861229976
 484       0.1461951103876
 485     0.012424329295587
 486    -0.0059583264280409
 487    0.0026168440043266
 488    -3.1431913427136e-05
 489    -0.00053395951417446
 490    -0.015143603208257
 491    0.0076035413642173
 492    -0.0037475061078073
 493    -7.544322858715e-05
 494    0.00065517017841108
 495     0.039478543283549
 496    0.0066363413246351
 497     -0.04624702904705
 498     -0.10904932883964
 499       0.0548314591242
 500    -0.0049724620627996
 501      0.04813410815758
 502     0.056030148191994
 503    -0.0050818537004672
 504      0.04918804407176
 505     -0.15156080633687
 506     0.014244448053659
 507     -0.13284638156637
 508     -0.27583457787177
 509     0.027016784356361
 510     -0.25216483822413
 511    -0.0067005492340135
 512    -0.0085032416991097
 513    -0.0029887887915345
 514    -0.012773037583081
 515    -0.00050237671284351
 516    0.0020960932613981
 517     0.016761958418505
 518    0.00091128280073885
 519    0.0074322217738865
 520    -0.0025890115430375
 521    -0.024323483738098
 522    -0.024345307995953
 523     0.051080926313049
 524      0.10985086884228
 525     0.018907439598751
 526    0.0031199669856886
 527    -0.0063846178773965
 528     0.023861601546841
 529    0.0039354357022474
 530    -0.0081966809143866
 531    -0.047534880951665
 532    -0.0077192580344126
 533      0.01410464856517
 534     -0.15382592820824
 535     -0.02692918949331
 536     0.060544946681577
 537    -0.0046761277598359
 538    -0.0096618089008286
 539    -0.0025035234506909
 540    0.0095096537843831
 541    0.0042058672294939
 542    0.0051208018380452
 543     0.013009808671974
 544    0.0036496318774161
 545    -0.011291665132473
 546    -0.0051992798301933
 547    -0.0013334441394922
 548    -0.0011620234056409
 549    0.00039798995228045
 550    -0.0013553475414328
 551    -0.0018574554262531
 552    -0.0062459841771878
 553    -0.0049855333478991
 554    -0.0023580835242576
 555    -0.0077565493979757
 556    -0.0062954637234709
 557    0.0047574893339895
 558      0.01884756076622
 559     0.013126111707382
 560     0.021323707046923
 561     0.031011926399421
 562     0.037130821461891
 563    0.0020737665462123
 564    -0.000717082423318
 565    -0.0061347237847719
 566    0.0047801344632088
 567    -0.008187960111423
 568    -0.0027251822735364
 569    0.0016566480098858
 570    0.0079102052808016
 571    -0.0064098420410449
 572     0.011187172476494
 573    -0.025522087724729
 574    -0.025532895890864
 575     0.053584945202864
 576       0.1117222953391
 577    -0.0045930417593299
 578    0.0016128291247534
 579     0.017490826632442
 580    -0.0059397357139236
 581    0.0020319782484374
 582     0.022061367251771
 583    0.0091746007296338
 584    -0.0036270943391782
 585    -0.043858676699625
 586     0.052799838728446
 587    -0.018666449997036
 588     -0.14502881655442
 589     0.008829623770698
 590    -0.0098692311221638
 591    0.0036112393514945
 592    0.0013454354892109
 593    -0.0028008947323439
 594    -0.0096117433757485
 595     0.012770283841258
 596    -0.0043980550990704
 597    -0.0023299119646049
 598    0.0044920459485341
 599    -0.0069541809994809
 600    -0.0068742856355687
 601     0.012105282567417
 602     0.032593983773332
 603    -0.006180074088832
 604    -0.0036957289676169
 605    -0.0062740436198725
 606    -0.0078569679367119
 607    -0.0046906193604251
 608    -0.0079349734271279
 609     0.015444160147001
 610    0.0083691766568484
 611     0.016305696480266
 612     0.048757082918943
 613     0.036757649193068
 614     0.046687414470813
 615    -0.0012959989773282
 616    -0.00035645714443944
 617    0.0084967497613575
 618    -0.0017402237207856
 619    0.0092187233054486
 620    0.0016544095938993
 621    0.00092376536227637
 622    -0.011282134388183
 623     0.001249558810416
 624    -0.012225174790755
 625    0.0057024233606025
 626    -0.008914127784385
 627     -0.09130087167965
 628    0.0018709970796584
 629    -0.0013872898099346
 630    -0.0012906024497682
 631     0.011895544553335
 632    -0.015614369987817
 633     0.017866421934097
 634    5.4919715657072e-05
 635    -0.00043750166964466
 636    -0.00045410546292043
 637    1.8282096665049e-05
 638    -0.00055304376438281
 639    -0.0071187343547576
 640    -0.0089248362677698
 641     -0.11401338623276
 642     0.010576415989847
 643    0.0024858179653294
 644    0.00065884460301415
 645    -0.029134115896713
 646    -0.0078085274355925
 647    -0.018082215764638
 648    -0.0007382311500335
 649    -0.0012005369747774
 650    -0.0013866280403727
 651    -0.0001162861203123
 652    -0.00053329036527182
 653    0.0086396656750207
 654     0.044715326120677
 655    0.00012743273539875
 656    -0.00035245062654391
 657    -0.0008699221104606
 658     0.010561172423309
 659     0.099436110030619
 660    -0.001316252855152
 661    -0.0013394836514966
 662    -0.001999512527952
 663     0.010840977861424
 664     0.098925588695188
 665    0.00097447863445519
 666    0.00060039778390221
 667    0.00047388761368581
 668    -0.0041765559627715
 669     0.022088806262478
 670    -0.00017932026241021
 671    -0.00027581744636223
 672    0.00018613770984741
 673    0.0029577361782595
 674     0.021962636144731
 675    1.7853004055651e-06
 676    0.00017692259001231
 677    -5.8899632841858e-05
 678    0.0042506162176576
 679      0.05616475814913
 680    0.00037384720392184
 681    0.00042199026730307
 682    0.00034216599526241
 683    0.0037741154979622
 684    -0.006464444964943
 685    -0.061022343791102
 686    0.0091269430302911
 687    0.0092286190927309
 688     0.013868101768289
 689     0.030697693621986
 690    0.0017737102851841
 691     0.039823728253131
 692    0.00030042139999787
 693    -0.00014342198544116
 694    5.5421408650954e-05
 695    -0.00018566172145549
 696    0.00018647694675141
 697    -0.0075122317593265
 698    -0.009104570485312
 699     -0.11765858972974
 700     0.007317363806779
 701    0.0037842272835582
 702    0.0049921002874085
 703    -0.019199826912765
 704     0.010716680308373
 705    -0.014092860034106
 706    -0.00010688797618781
 707    -0.00057581146600501
 708    0.00011160387498947
 709    0.00036127891612288
 710    6.4156832658403e-05
 711      0.00773906299055
 712      0.10652582009793
 713    -0.00036421355402002
 714    0.00042381038273597
 715    -0.0011429187315591
 716    0.0011545773600317
 717     0.023856488798058
 718    0.00043028056303261
 719    -0.00040952854315802
 720    -0.00031188351760015
 721    0.0026686601150328
 722     0.052594000359182
 723    0.00024877282536475
 724    0.00011921296465501
 725    0.00046757449822695
 726    -0.0017806055482561
 727     0.068317911059172
 728    -0.00047901228206143
 729    -0.00043923941733936
 730    -0.00088735534750857
 731    0.0027242475719437
 732     0.041009386599745
 733    0.00085463909133093
 734    0.00033905298829997
 735    0.00024461018462166
 736    -0.00064578913539958
 737    -0.012855878023272
 738    0.00059902199035473
 739    -0.0006460415260842
 740    0.0010758213361232
 741    -0.017665009973009
 742     0.023294014879238
 743      0.38575488714401
 744    -0.007213393004971
 745     0.015045089828751
 746    0.0043248190574707
 747    -0.021781783005262
 748     0.076237295127346
 749     0.043936569197155
 750    0.00012030846698859
 751    -0.00028295331810942
 752    0.00079211437482505
 753    -0.00041994228725099
 754    -0.00035759583689902
 755     0.010378302652208
 756     0.016278946992565
 757      0.13594382700407
 758    0.0055215758034327
 759    0.0069315847507979
 760     0.014960901236199
 761    -0.012496982922074
 762    -0.032581628506751
 763    -0.051211027001939
 764    -0.00031980176314593
 765    -0.00040068512724139
 766    0.00095780272930492
 767    -0.00043896349261202
 768    -0.00074028562816954
 769    -0.013774478895386
 770     -0.13129496808891
 771    0.00091255852458044
 772    -0.0022637135076406
 773    -0.0018482135244764
 774    -0.0087491525262249
 775    -0.077506723686167
 776    0.00086675635465221
 777    -0.00062182279616004
 778    -0.0011453034910114
 779    -0.002441927144123
 780    -0.021662999122671
 781    -0.00042944196264627
 782    0.00049797293475069
 783    0.0011124610755466
 784    5.8498194451438e-05
 785     -0.18051422337018
 786    -0.00025048206681627
 787    -3.0406032364056e-05
 788    -0.00024895193970505
 789    -0.0028695428762045
 790     -0.19575227909137
 791    0.00027294453654776
 792    0.0010240967260838
 793    0.0007022702488506
 794    -0.002048469311243
 795     -0.16149884000693
 796    -0.00041633640891868
 797    -1.0183494812926e-05
 798    0.00016809852353178
 799    0.0012809410235774
 800    -0.00084745787329727
 801    -0.027905875101036
 802    -0.0026168706433169
 803    0.0021367779203726
 804    0.0015854236464992
 805    -0.011815196945814
 806    0.0079895643000839
 807    0.0069560513064212
 808    -4.7490168820382e-05
 809    -5.5948199652943e-05
 810    -0.0001321074347513
 811    0.00013732194097433
 812    0.00014131927595921
 813    -0.0027880220731008
 814    -0.0032242473581843
 815    -0.044847241195825
 816     -0.00037632151521
 817    0.0011428942331451
 818    0.0040401158501691
 819    -0.0021732006904158
 820    -0.00092361946007539
 821    -0.014623965791097
 822    0.00023810443106865
 823    -0.00040234217917104
 824    -0.00011897627077781
 825    4.7616561771308e-05
 826    0.00015956147252035
 827    -0.0034117782822592
 828    -0.0026743261033523
 829    0.00098121425028158
 830    -0.00068483216741851
 831    -0.00029727518212817
 832    0.0053161615534463
 833     0.049339119774061
 834    -0.00049923748784281
 835    0.00040363054633715
 836    -0.00017929343336484
 837    0.0019501958965378
 838     0.032679817714488
 839    -0.00021341171336827
 840    -4.5346825912193e-06
 841    -0.00031791756656768
 842    0.00031301853955808
 843    -0.0061781303002047
 844    -0.00010998118895047
 845    -0.00014665181432736
 846    -8.1329569443294e-05
 847    0.00024633324738639
 848     0.023876300513696
 849    3.9902426660944e-05
 850    0.00023621487824947
 851    0.00011643086697326
 852     -0.00091098357002
 853     0.017580857182982
 854    6.3162733646285e-05
 855    0.00025086829862794
 856    0.00013038293621197
 857    -0.00043345926162772
 858    0.00086856208658409
 859     0.011840993319743
 860    0.0089785469146435
 861    0.0033601981753896
 862    0.0073970268528115
 863     0.016864115723158
 864     0.023719118389315
 865    0.0049720493426843
 866    0.00033793798697324
 867    0.00040005063299235
 868    0.00022553677543236
 869    0.00012339621652021
 870    -7.1609879679812e-07
 871    -0.002583894848445
 872    -0.0063933317465751
 873    -0.023374621952061
 874    0.0012608557459763
 875    -0.0010509095310827
 876    -0.0018898681260248
 877    -0.009931675384454
 878     0.006631290442656
 879    0.0092597773925809
 880    -9.8613721309913e-06
 881    0.00016637431279413
 882    0.00021622864609204
 883    0.00054601641570899
 884    0.00043321380723172
 885    -0.0030651528325342
 886     0.048380558324264
 887    0.00057637634803923
 888    -0.0016523247953907
 889    0.0011262055179902
 890    -0.0044761994696286
 891    -0.010245901519461
 892    -0.0014350257174118
 893    -0.00025109042748998
 894    -0.00070531197656762
 895    0.0041947080790857
 896    -0.008799145772385
 897    0.0004366668548396
 898    -0.00019927394515221
 899    0.00057397481656408
 900    -0.0030080853422033
 901     0.036215168977423
 902    0.00010152419640147
 903    0.00052468891797739
 904    -4.0113239863952e-05
 905    0.0065250805270424
 906     -0.03417981243068
 907    -0.00021430513803898
 908    0.0004452839948089
 909    -5.7312927752142e-05
 910    -0.0017270664723248
 911    -0.0069638321875902
 912    6.4203860005717e-06
 913    -0.00037466512809435
 914    -0.00019911052736382
 915    -0.00047560129899244
 916    -0.0015905164116043
 917      0.03583325308892
 918    -0.0049290025527975
 919    -0.0058690903268672
 920    -0.0019033372093316
 921    -0.024254956868091
 922    -0.015613090697266
 923    -0.0088205958860329
 924    -9.3280900998535e-05
 925    0.00055466040462408
 926    -0.00056443840411399
 927    7.1781528093775e-05
 928    -0.00036147057970261
 929    0.0016466982827809
 930    -0.00096423894587506
 931      0.05787275383869
 932    -0.0068391972621936
 933     0.001166773638824
 934    -0.0040385250718714
 935     0.011142401492101
 936    0.0012297485419325
 937    0.0056524423037433
 938    -0.00053474672910101
 939    0.00056691543030139
 940    0.00011596908047553
 941    0.00029751715368295
 942    -0.00059581172354671
 943    0.0039308196695344
 944    -0.062547235183872
 945    -0.0034384722324951
 946    0.00026780250480795
 947    9.0434858398421e-05
 948    -0.00065835138037239
 949    -0.027494531347065
 950    0.0012103095171752
 951    0.00045388903270724
 952    -8.0470583785838e-05
 953    0.00045744836899237
 954    -0.015888270626381
 955    0.0010087377320282
 956    -0.00026260484100832
 957    0.00058032253514047
 958    -0.0028499603191268
 959    -0.021781925849083
 960    -0.00010603691834938
 961    -0.0004862033277749
 962    0.00036521325369943
 963    0.0020056964237427
 964    0.0041477668004881
 965    0.00021953195335969
 966    3.4492786692947e-05
 967    -0.00014918705118137
 968    -0.0022405885445075
 969    -0.048481385488895
 970    -0.00044184398443445
 971    0.00011216095857933
 972    0.00024835243660218
 973    0.0045329104853989
 974    -0.002886972588485
 975     -0.11521101636833
 976     0.006997996808392
 977    0.0020632366337463
 978     0.010640844502525
 979     0.010999595555729
 980     0.007579060672003
 981     0.039321000130955
 982    -0.00042425600878307
 983    -0.0005485592051602
 984    0.00016387467328823
 985    -8.014929356214e-05
 986    0.00029304705713841
 987    -0.0037328814707702
 988    -0.0063584818216961
 989    -0.043859733890718
 990    0.0033956737383127
 991    -0.00054992463848835
 992    0.0069807974751689
 993    -0.010125540193431
 994    0.0048366022981937
 995    -0.014319201296708
 996    -0.00027417385518396
 997    4.4538869564021e-05
 998    3.0123541537857e-05
 999    0.00018386670549185
 1000    0.00036472157272334
 1001    0.0034711716543826
 1002     0.028006744702719
 1003    0.00040581117290561
 1004    2.198620326242e-05
 1005    0.00036680127127285
 1006    0.0028840440141276
 1007     0.044262217053381
 1008    0.00025783593489515
 1009    0.00037400498720144
 1010    7.3190173573222e-05
 1011    -0.00095303723253442
 1012    -0.0017375507684436
 1013    -7.4112021891173e-05
 1014    0.00016801632016741
 1015    -0.00053851021765023
 1016    0.0010637703980348
 1017     0.040687374312476
 1018    -0.00016116968552549
 1019    0.00011583321881367
 1020    -0.00045657572369722
 1021    0.0034616854953538
 1022     0.036632360438659
 1023    0.00021366733757855
 1024    -0.00014390212408156
 1025    0.00029076823291747
 1026    -0.0028774125290909
 1027     0.086025538392091
 1028    -0.00035185948446281
 1029    -0.00082794531342167
 1030    0.00070820675796294
 1031    0.00022724297712046
 1032    -0.0030537134344803
 1033     0.019061031012031
 1034    0.0066458733796319
 1035     0.001968908915592
 1036    0.0056748093632958
 1037     0.025763596534459
 1038    0.0018551803870888
 1039     0.026130755763604
 1040    0.00044175139269944
 1041    -0.00022746721516034
 1042    -0.00042039232901363
 1043    -0.00070032522782882
 1044    -0.00040379931823653
 1045    1.5860510231469e-05
 1046    0.0010256016160531
 1047    -0.0082967290418422
 1048    -0.012123233580965
 1049    -0.00074226057181131
 1050    -0.014025426546171
 1051     0.031072711898909
 1052    0.0028111715383092
 1053     0.034423113135833
 1054    -0.00048286393767874
 1055    0.00024096245772849
 1056    -0.00034564742412479
 1057    3.5380222593787e-05
 1058    -0.00012523194886099
 1059    0.0049753285823568
 1060     0.069483694865042
 1061    0.00017945433423359
 1062    -0.00095659753387551
 1063    4.4147461522178e-06
 1064    0.0021542211286568
 1065     0.040704752690559
 1066     -0.00123098129935
 1067    -0.00013402924605122
 1068    -0.00039817169917327
 1069    -0.0044092999362424
 1070    -0.099494755495597
 1071    0.0011615299025605
 1072    -7.5577015959494e-05
 1073    0.00030751895995356
 1074    0.00094118069863897
 1075     0.048524882439372
 1076    0.00078392315112896
 1077    0.00016629701456115
 1078    -0.0003247903296316
 1079    -0.001565343060193
 1080    -0.050633860990684
 1081    -0.00079167728407316
 1082    -0.00042111746939191
 1083    0.0004231689245336
 1084    0.00030681231142978
 1085    -0.020487656227874
 1086    -0.00066536226681452
 1087    0.00049013729281812
 1088    -0.0006371066030714
 1089    -0.0027574656316809
 1090    0.0004006996377394
 1091      0.08877587369952
 1092    0.0072682046419018
 1093    0.0081921953353606
 1094     0.016787063233469
 1095     0.012517465960185
 1096     0.039489726682053
 1097     0.073020333565921
 1098    0.00030975842913782
 1099    0.00020393823736157
 1100    -8.4700783554588e-05
 1101    -8.117923761882e-05
 1102    0.00021940369024385
 1103     0.012908310754631
 1104      0.01725103792442
 1105      0.18896131695477
 1106     0.006790217850487
 1107    -0.0059632912462414
 1108    0.0090894694099171
 1109    -0.017220852043828
 1110    0.00032687057450831
 1111    -0.014675153843056
 1112    0.00013946880786564
 1113    0.00041872044293126
 1114    0.00066811323531967
 1115    5.2044799370951e-05
 1116    0.00050721131426308
 1117    -0.0093863845788288
 1118     -0.06956058262032
 1119    0.00041461521892652
 1120    -0.0001489809514095
 1121    -0.00026687626346385
 1122    -0.0059780313155229
 1123      -0.1271583337051
 1124    -0.0010858313132331
 1125    -0.0014560892311953
 1126    -0.00048710249226765
 1127    -0.0041767106760363
 1128    -0.061952652744243
 1129    0.00039353369206865
 1130    4.7837000150317e-05
 1131    0.00010221498511359
 1132    0.0021407731400972
 1133    0.0091905918465689
 1134    -2.8317758598349e-05
 1135    0.0002516761435841
 1136    0.00071945095639368
 1137    -0.0037652940955266
 1138    -0.097839185704025
 1139    -0.00014716845170467
 1140    0.00059497591435844
 1141    0.00082497354712483
 1142    0.00050857761918918
 1143    -0.066684240708748
 1144    -0.00038133516434919
 1145    0.00040656548025325
 1146    0.00014611437063886
 1147    0.00014948073165202
 1148    -5.7340517437778e-05
 1149    -0.0040659488789252
 1150    -0.00099791805633631
 1151    0.00035385180697677
 1152    -0.00066507903004674
 1153    0.0045665877064721
 1154    0.0004380541091413
 1155    0.0058235671271649
 1156    2.4735052456941e-05
 1157    1.051211424902e-05
 1158    3.411952855079e-05
 1159    -7.4475399006123e-06
 1160    8.3132908489443e-05
 1161    -0.00056177124427706
 1162    -0.00086558776741527
 1163    -0.0068707476341835
 1164    0.00094629601741626
 1165    -5.3497476586316e-05
 1166    0.0018947394941839
 1167     -0.00564816784315
 1168    0.00067837205104019
 1169    -0.0087818257037309
 1170    -9.7516815439655e-05
 1171    3.752347666974e-05
 1172    -0.00019688855145048
 1173    3.162506854178e-05
 1174    -0.00016608920456715
 1175    6.6287028967708e-05
 1176    -0.0080483320982128
 1177    -0.00080568830900871
 1178    0.00083332471787888
 1179    0.00062111912113683
 1180    0.00054661463717634
 1181    0.0072663290881924
 1182    -3.3924291987414e-05
 1183    2.5251067487319e-06
 1184    -9.5128216594172e-05
 1185    0.00087167274926752
 1186     0.012880089503199
 1187    0.0006107925394715
 1188    -0.00074066492527277
 1189    -0.00072060796252614
 1190    0.0018729715748191
 1191    0.0054630208086306
 1192    -1.3331448831993e-05
 1193    0.00019429709992348
 1194    8.3567049535761e-05
 1195    -0.0018689849650486
 1196    -0.0019383920469838
 1197    4.5018662541024e-05
 1198    -0.00018332848046052
 1199    1.5948050249137e-05
 1200    6.3630272183491e-05
 1201    0.0014120457597307
 1202    -0.0001305484315867
 1203    3.8006085304227e-05
 1204    -0.0001118630356437
 1205    -0.0013495334254611
 1206    0.0011493430333958
 1207     0.027502359726113
 1208    0.0015401715154518
 1209    -0.0018924374570606
 1210    -0.0015851598485954
 1211     0.010798966303072
 1212    -0.0062526252512561
 1213    -0.0067990604023688
 1214    -7.7742500724168e-05
 1215    7.7743636469532e-05
 1216    9.072631217818e-05
 1217    -5.7164865427035e-05
 1218    -8.8941697839573e-05
 1219     0.002357131861404
 1220     0.003050219904406
 1221     0.036829450970428
 1222    0.0028300415488824
 1223    -0.0011268967127482
 1224    0.00024232192038058
 1225    -0.011605432125092
 1226    -0.0006983068360388
 1227    -0.0024943840862517
 1228    5.9213955413134e-05
 1229    0.00032741235208343
 1230    9.4674425175458e-05
 1231    -0.00024837691334116
 1232    -0.0002114255330882
 1233    -0.0046317130744343
 1234    -0.043138820692095
 1235    1.8878163114377e-06
 1236    -0.00033707216911729
 1237    -0.00064636841543247
 1238     0.002448894068435
 1239    -0.0029365978201001
 1240    -0.00016554963245525
 1241    0.00038705284952814
 1242    0.0007382165985152
 1243    -0.0019767948765365
 1244     -0.02367412061656
 1245    -0.0003828317957427
 1246    -3.0107591138679e-05
 1247    1.8427447201322e-05
 1248    1.9105318024272e-06
 1249    0.0050628177778395
 1250    2.2131674067622e-05
 1251    0.0001660569065793
 1252    -0.00010656557020541
 1253    -0.00019211670715795
 1254    -0.021149976388301
 1255    0.0002177755033259
 1256    -0.0002462374794031
 1257    8.6740993871177e-05
 1258    0.0006765376897459
 1259    -0.019682314542415
 1260    1.8553412733072e-05
 1261    -0.00014563517070584
 1262    1.2088304896472e-05
 1263    -0.0024466105908578
 1264    -0.00018630731656414
 1265     0.080982913681458
 1266    0.0088283244570041
 1267     0.001233983666546
 1268    0.0022335777704288
 1269     0.029208761447459
 1270    0.0036005592860221
 1271    -0.0042394399636327
 1272    -0.00028253522274834
 1273    0.00035050095828316
 1274    0.00023563800542185
 1275    0.00030519277361836
 1276    0.00016889601537982
 1277    0.0045798444888881
 1278    0.0070441242426228
 1279     0.058836024178402
 1280    0.0070136454508651
 1281    -0.0016904182443215
 1282    0.0019338054774656
 1283    -0.015940615106635
 1284    -0.0010954026074277
 1285    -0.0072478492387102
 1286    -0.00019911066888906
 1287    -0.00011842710818224
 1288    0.00018589264723629
 1289    -8.563424021182e-05
 1290    0.00032547228338931
 1291    -0.0043272977212793
 1292    -0.055928740570206
 1293    -9.2166605360655e-05
 1294    -0.00037498278668272
 1295    -8.9071080654892e-05
 1296    -0.0018745341732717
 1297    -0.025935372620109
 1298    2.261072360973e-05
 1299    -0.00047752812631846
 1300    0.00054365515709456
 1301    0.00058282434843116
 1302    -0.0094939347633714
 1303    -0.00022421786414497
 1304    -0.0001128707997804
 1305    -0.00019469938426961
 1306    -0.00090698182254008
 1307    -0.028042573964177
 1308    -0.000565998808083
 1309    -0.00028174248003855
 1310    -8.6451924628339e-06
 1311    0.0037192913951365
 1312    -0.054025884871995
 1313    0.00059941601066447
 1314    0.00048592189868367
 1315    -0.00027078181957484
 1316    -0.002941046600878
 1317    -0.035164935589719
 1318    0.00037779949141793
 1319    0.00027953221260656
 1320    7.5150325542322e-05
 Sym= A
 Ene=     0.113852939
 Spin= Alpha
 Occup=    0.00000
   1    -0.038713419059588
   2    -0.0066976588879623
   3     0.048304319294332
   4      0.10888394615796
   5     0.068509874817235
   6     0.011121030271533
   7    0.0075941547532248
   8     0.070091453826639
   9     0.011365195308068
  10    0.0077227988845671
  11     -0.18037251592959
  12    -0.030212074700004
  13    -0.028996617526083
  14     -0.46140241721657
  15    -0.065732716667403
  16     0.015366912062408
  17     -0.01652971652583
  18    -0.0015975043820501
  19    -0.0016381163144073
  20     0.028041420155202
  21    -0.0013587855922625
  22    0.0029411666953594
  23    -0.0016128678526713
  24    0.0018424192646864
  25    -0.0040632487500338
  26    -0.0028667947050597
  27    -0.039501517058583
  28      -0.0389201020789
  29     0.051892462879944
  30      0.33689236231324
  31    -0.0070837091833444
  32    0.0024268121742338
  33    -0.0073035171108204
  34    -0.008912698023528
  35    0.0030080247158461
  36    -0.0092573193341972
  37     0.016434657574258
  38    -0.0078173798032937
  39     0.018151926942742
  40     0.072383853042649
  41    -0.010358143216189
  42     0.070262727254543
  43    -0.021209618978666
  44     0.016658658599095
  45    -0.0014578873852173
  46     0.037414635507278
  47    -0.001917774620592
  48     0.027670082781347
  49    -0.021651457528375
  50    0.00092520052012674
  51    -0.048052088698525
  52    0.0026506574813337
  53    -0.0054883314438217
  54    -0.0055868958283036
  55     0.012581001364762
  56     0.029094512848334
  57    -0.0010320172138903
  58    0.0044778694180457
  59    -0.001625400992138
  60    -0.0013954825577431
  61    0.0056337738539474
  62    -0.0020401479644037
  63    0.00071222848276849
  64    -0.011847478702403
  65     0.004470069928925
  66     0.029672445251457
  67    -0.038091425106463
  68    0.0067758379003247
  69    -0.0018625066768907
  70    -0.0037543818965347
  71    0.0021871514323281
  72    -0.0046779254032995
  73    -0.010815874678236
  74    0.0031294986434409
  75    0.0054402336648029
  76    -0.003035154178792
  77    0.0059055923935591
  78     0.013961499698365
  79    0.0023154118645718
  80    0.0022870409299686
  81    -0.0037371710342905
  82    -0.006048571661488
  83    0.0025731662378359
  84    -0.0016081354503657
  85    0.0005117416667319
  86    0.0030141290082611
  87    -0.0020254859895699
  88    0.00061114529098114
  89    -0.012047207159166
  90      0.00456819731345
  91    -0.0026486978583376
  92      0.01719855745463
  93     0.012474850124463
  94     0.010019741552135
  95    0.0041503714803982
  96    -0.015437059112475
  97    -0.00044498299629083
  98    -0.0018504952751167
  99    -0.004300281537422
 100    -0.0062173512822962
 101     0.020604682591796
 102    0.00075681785653583
 103    0.0036385372029675
 104    0.0060029980779251
 105     0.035275941143212
 106     0.034623251287717
 107    -0.051185179094106
 108     -0.24696872951038
 109     0.027873769803975
 110    -0.0049143850567993
 111    -0.0018239140950246
 112     0.035223030086155
 113    -0.0061361796279522
 114    -0.0023330876522552
 115    -0.067474036965485
 116     0.013987583259284
 117    0.0047896539889694
 118     -0.26687764047427
 119     0.030475748969579
 120     0.011353419347385
 121    0.0095340993827309
 122    0.0045042128494388
 123    -0.00025211529188644
 124    -0.016977599969523
 125    0.0048854056534472
 126    -0.010163284888896
 127    -0.0069328122804191
 128    -0.00042598524492032
 129     0.018950926783246
 130    -0.0059158358005282
 131    0.0081855786348275
 132    0.0083731034087769
 133    -0.022174492056365
 134    -0.015106648386371
 135    -0.0063482133789936
 136    0.0010440783319767
 137    -0.00063127630330042
 138    -0.0081210335155115
 139    0.0014136137958139
 140    -0.00084719014841292
 141     0.014259203156977
 142    -0.00037611594802645
 143    0.00078911920445537
 144     0.065880395713679
 145    -0.018814438931715
 146    0.0063893743979498
 147    0.00053026064755152
 148    -0.0016310400917024
 149    0.0010038690640677
 150    -0.0034485153444558
 151     0.012447763537176
 152    -0.00031851778053292
 153    0.0027106976275125
 154    -0.002197362916772
 155    0.0053416671135977
 156    -0.016055086597165
 157     0.002778452800573
 158    0.0030138114907064
 159    -0.013610987966716
 160     0.023539810860527
 161    -0.0080893544953933
 162    -0.0020991968596399
 163    -0.0033672844914348
 164    -0.010287795571452
 165    -0.0026272649585972
 166    -0.0041512489911724
 167     0.019911047586187
 168    0.0057193154329661
 169      0.01057835559946
 170     0.066697763532424
 171     0.013686492239142
 172     0.025387383455016
 173      0.00448367347495
 174     0.012755784756193
 175    0.0016320165842773
 176    -0.0010036298225913
 177    -0.0017793114131842
 178    -0.0051673999848849
 179    -0.017319809747862
 180    -0.0023076236359945
 181    0.00094068663287667
 182    0.0030972585924638
 183    -0.0014591544865467
 184    -0.00055217699697185
 185     0.011660507288121
 186    -0.022324205151235
 187    -0.021290768433379
 188     0.011607106757223
 189    -0.0049949418642858
 190    -0.021835382466469
 191     0.011931483046298
 192    -0.0051167740838156
 193     0.054164545849812
 194    -0.024073709123801
 195     0.014539787877068
 196      0.15918280768373
 197     -0.12011318185003
 198     0.030335652504355
 199     0.002045883198381
 200    0.0068359676569506
 201    0.0043289467672807
 202    -0.0048115130873517
 203    -0.0014573284303022
 204    0.0017403923270211
 205    -0.011143287127326
 206    -0.0040065504935776
 207    -0.00050440344317572
 208    0.0019012074994728
 209     0.013938920083682
 210     0.013719416494591
 211    -0.017144136790798
 212     -0.11832446228778
 213    -0.0020195132953664
 214    -0.0021892734363766
 215    0.0026899332894533
 216    -0.0024748298095907
 217    -0.0028110079188612
 218     0.003595710721807
 219    0.0074882919588805
 220    0.0047764836151823
 221    -0.0021201106989553
 222    -0.0047964839637908
 223     0.023232457978112
 224    -0.067055812660624
 225    0.0022252448552434
 226    -0.014958067924593
 227    0.0035202475422983
 228    -0.0094200536828248
 229    -0.0013682272171993
 230    -0.0016628283749813
 231     0.019814306000655
 232    -0.0056170229028708
 233      0.01152719495182
 234    0.0014219847640463
 235    -0.013660618667549
 236     -0.01413104320831
 237     0.036234605342487
 238      0.04494214578518
 239    0.0016641425700204
 240    -1.412974788833e-05
 241    0.0004682707644247
 242    0.0021614518585674
 243    0.00014856428592509
 244    0.00051631821165721
 245    -0.0028787043772103
 246    0.0039461220517431
 247    -0.003065122296618
 248    -0.022870827727199
 249    -0.034163927283674
 250    0.0068636338917516
 251    -0.0015248468502766
 252    0.0065951619213823
 253    -0.0020103961265894
 254    0.00032822532745351
 255    0.0043932170854919
 256    0.0019696069839261
 257     -0.01014199391958
 258    0.0034996002985483
 259    -0.0015645455943001
 260    -0.0059062235728521
 261    0.00094971984225031
 262    0.00066231343724656
 263    0.0052683750975876
 264    -0.023324437477514
 265    0.00010752733146804
 266    -0.0018282036226582
 267    0.00038598933318255
 268    0.00025676976150497
 269    -0.0022861884698291
 270    0.00035842919774652
 271    0.0025555597426019
 272    0.0054795042211248
 273    -0.0037062413134218
 274    -0.020279632216453
 275     0.012296534907507
 276     0.012465656776727
 277    -0.0016284267249698
 278    0.0024043079103307
 279    -0.004438457347104
 280    0.00094021234808548
 281    0.00064213049614613
 282    0.0030671834866801
 283    -0.0023731623744357
 284    0.0060879189368917
 285    -0.0016247898710088
 286    -0.0014733946617522
 287    -0.011443837323056
 288    -0.011591210177063
 289     0.023130900185001
 290     0.068682575842973
 291    -0.0086092376873063
 292    -0.0027102654681361
 293    0.00054567904390336
 294    -0.010868795311384
 295    -0.0033797775430036
 296    0.0006578144137015
 297     0.021693175161451
 298    0.0080327660771472
 299    -0.002554965574672
 300     0.084451870388351
 301     0.015896905576249
 302    0.0039484653525407
 303    -0.0034934667464667
 304    -0.00086420305777943
 305    -0.0011031936381397
 306    0.0057485699951434
 307     0.001928507716163
 308    0.0040273183926566
 309    0.0021408835971889
 310     0.002089064571411
 311    -0.0060276920475196
 312    -0.0024221211517974
 313    0.0062117799858825
 314    0.0062138848953167
 315    -0.010570916288326
 316    -0.047339530674435
 317      0.00142260182346
 318    0.0039320730050566
 319    0.00019464471139951
 320    0.0017816594667546
 321    0.0050320941486543
 322    0.00034835817303667
 323    -0.0042882582357346
 324    -0.0083570777914792
 325    0.0019137059778426
 326    -0.008744538799355
 327    -0.050693344053604
 328    -0.017161282181759
 329    0.00078032800075773
 330    0.00088400459723595
 331    -0.0028050373607072
 332     0.003845460704913
 333    -0.0023421631325054
 334    -0.00025631586719317
 335    -0.002529960559374
 336    0.0035613997482938
 337    -0.004339119122657
 338    0.0032687949394279
 339    -0.015996964068565
 340    -0.0025103785920858
 341     0.013590856563295
 342     0.044749988457848
 343    -0.077136822767285
 344    -0.00010213174213655
 345      0.10615483433117
 346    -0.078973632446671
 347    -6.3864538328062e-05
 348      0.10866572286633
 349      0.20655889574153
 350    0.0051929344840995
 351     -0.28785539827845
 352      0.47122715340483
 353    -0.029616154487812
 354     -0.62774417840108
 355      0.01111244288854
 356    -0.0057446327316565
 357    0.0034554171525659
 358    0.0048837659102356
 359    -0.002762385421323
 360    -0.0073756096281475
 361     0.015552135325474
 362    -0.0036083667726457
 363    -0.0090026572213488
 364    0.0037694257677231
 365     0.030982168924472
 366      0.03119408253424
 367     -0.06536003864154
 368       -0.151476437128
 369    -0.023434168873394
 370    0.0038442884737491
 371    -0.0058138757970512
 372     -0.02971133394837
 373    0.0049607284220431
 374    -0.0075782872571497
 375     0.057947593624041
 376    -0.0080409978719142
 377     0.010769389948765
 378       0.2101286173461
 379    -0.038704761957419
 380     0.070674069307453
 381    0.0082730667921392
 382    -0.013917019914087
 383    0.0045739328990847
 384    -0.015148824241471
 385    0.0047257467736557
 386     -0.01040299548417
 387     0.018123753770012
 388    -0.0068383814575021
 389     0.019488992804053
 390    -0.006886400043743
 391     0.013460729789734
 392     0.013685697076348
 393    -0.035138423183146
 394    -0.019151401051907
 395    0.0073238150793239
 396     0.001010166550248
 397    -0.0077781362336205
 398     0.009352322008132
 399    0.0011251594645631
 400    -0.0099202477296569
 401    -0.017217054761544
 402    -0.0057922937990371
 403     0.018566528447667
 404    -0.071190079848812
 405    0.0076556824591819
 406     0.078461715555397
 407    -0.0020870754377138
 408    -0.0022862506529924
 409    -0.018858955416915
 410    -0.00054491465550047
 411     0.013494911734494
 412    0.0026941083018476
 413      0.00257433778756
 414     0.024833274422225
 415    0.0008374050811627
 416    -0.017426075580929
 417    -0.056544359803216
 418    -0.055903428265654
 419     0.077103579269658
 420      0.48147482626693
 421    0.0014140195502252
 422    0.00067746734776015
 423    0.0053597102585387
 424    0.0016551761017107
 425    0.00081265752608463
 426    0.0067094710366801
 427    -0.0068099140433147
 428    -0.0030397544771349
 429    -0.013549112344917
 430    0.0012637289017304
 431    0.0045775650186518
 432    -0.045540511717931
 433     0.064191435371767
 434     0.012860938108079
 435    -0.0022152204449029
 436    -0.00061164248737203
 437    -0.00023221793632585
 438      -0.0836241525134
 439    -0.016511171932228
 440    0.0027307843197747
 441    0.0011269055361337
 442    0.0021274659159272
 443    0.0048828045308338
 444    0.0050728482098808
 445    -0.015320122689435
 446    -0.0030625625534153
 447    0.0028490368987144
 448    0.00046547530278823
 449    -0.0040890527817951
 450    0.0036828317476953
 451    0.0005757655136735
 452    -0.0053035500992319
 453    -0.0058948396553429
 454    -0.0013957681422142
 455     0.007881283450759
 456    -0.034416683012435
 457    -0.0045530155371749
 458     0.052194144661772
 459    -0.00040442959149674
 460    -0.0020153564785335
 461     0.013324982518101
 462    -0.0017385394130526
 463    -0.0098789427567462
 464    0.00096018808158526
 465    0.0035791768940483
 466     -0.01664506772105
 467    0.0037040147981791
 468     0.012224456309323
 469     0.042151627650026
 470     0.042371771415292
 471    -0.086734417167778
 472     -0.21747457529033
 473    0.0046248676815936
 474     0.003657840860892
 475     0.033740354390454
 476     0.006019006563182
 477    0.0047371118227316
 478     0.042777427823583
 479    -0.0088597366622118
 480    -0.0075123547495923
 481    -0.083231951712195
 482     -0.05428832586786
 483    -0.035763832342749
 484     -0.30364152098772
 485    -0.026634421140727
 486    -0.010665912331517
 487    -0.0041991941299744
 488    -9.1635209752614e-05
 489    -0.0033192396819253
 490     0.034201467869403
 491     0.014119635483854
 492    0.0065108948005517
 493    0.00010264474602872
 494     0.005421160782477
 495    -0.035090715340067
 496    -0.0058897596255063
 497     0.040815944989438
 498     0.097984192522841
 499     0.016081337183544
 500    -9.8437439431856e-05
 501     -0.10273269926033
 502     0.016523064633366
 503    -0.00011916980574663
 504     -0.10513640293143
 505    -0.029980808640514
 506    -0.0035261225203879
 507      0.27103762442174
 508     -0.18196938262563
 509     0.025940586519266
 510      0.64931460842374
 511     0.035306638787633
 512    -0.0049150303203027
 513    0.0067735599489797
 514    -0.0061706685280272
 515    -0.0006692398726644
 516    -0.013594067487327
 517    0.00038518883558709
 518    -0.0011564791216169
 519    0.0027289581301279
 520    -0.0015372083020148
 521    -0.0021021851904158
 522    -0.0016083550888259
 523    -0.011352995414341
 524     0.078082095603793
 525    0.0094587373881561
 526    0.0014467259015059
 527    0.0072849817091659
 528     0.011812974423112
 529    0.0018665318849058
 530    0.0093311206507585
 531     -0.02616489799825
 532    -0.002887664820578
 533    -0.016526113218079
 534    -0.081206562592503
 535    -0.016980213629213
 536    -0.070303009341577
 537    -0.0064176531923294
 538     0.014245576665751
 539     0.002136810922095
 540    0.0069382100763614
 541    0.0023530039083541
 542    0.0078818587884802
 543     -0.01868972754983
 544    -0.0035347820549536
 545    -0.0078997006261735
 546    -0.0021743552011641
 547    0.0018055228139891
 548    0.0017341918209867
 549     -0.00186175803728
 550    -0.010186534337969
 551     0.001446952762213
 552    0.0015963887297267
 553    0.0020164656225174
 554    0.0018616292127277
 555    0.0019188628717531
 556    0.0026980101273744
 557    -0.003132350842015
 558    -0.0064348295127036
 559    -0.001633325279525
 560    -0.0046141417506577
 561    0.0029609871995525
 562    -0.053020679728131
 563    -0.0025177882230581
 564    -0.0027529143524245
 565     0.014569606545379
 566    -0.00089184106571477
 567    -0.0041652055314581
 568    0.0034497310578931
 569    0.0048232101723883
 570    -0.017976564515734
 571    0.0020693146698984
 572    0.0051103572746086
 573     0.043850159325671
 574     0.043256107902492
 575    -0.069841982826977
 576     -0.29256720462449
 577    0.0044774284125878
 578    -0.0051483312182152
 579    -0.036881462513868
 580    0.0057317394789364
 581    -0.0064609169015234
 582    -0.046625035510135
 583    -0.010696055184308
 584      0.01366013850497
 585     0.090365203693997
 586    -0.034072487100212
 587     0.040852461275272
 588      0.34357684616072
 589    -0.027438295138793
 590    0.0060209056371701
 591    -0.0079851104288225
 592    0.00041049006831178
 593    0.0011427676654853
 594     0.032119227243903
 595    -0.0097747617393092
 596     0.010215416868919
 597    -0.00028294464141672
 598    -0.0014276584639999
 599    0.0042381536360808
 600    0.0042620445399445
 601    -0.010202360259692
 602    -0.0058409170261101
 603    -0.00023821168244561
 604    0.0014524176015763
 605    0.0087651458860987
 606    -0.00037288264414189
 607    0.0018263929483374
 608     0.011153258291592
 609    -0.001334987317112
 610    -0.0038859313590308
 611    -0.021019784960551
 612      0.01882084089613
 613    -0.0077820308642634
 614    -0.084527955101615
 615    -0.00037454110076148
 616    -0.0017992441429029
 617    -0.018682916975115
 618    0.00093609250799375
 619    0.0034473051996957
 620    0.00044918203833435
 621    0.0018054086256457
 622     0.023713847283719
 623    -0.0010950376486363
 624    -0.0037898911158547
 625    0.0018063526060282
 626    -0.0016456919342174
 627    -0.037522891366258
 628    0.0052597307663113
 629    -0.0027606774681532
 630    -0.00034037330411778
 631     0.015817748091962
 632    -0.018831461829197
 633    0.0089908098078513
 634    0.0001629925875747
 635    -0.00034194373462563
 636    -0.00045437311496008
 637    8.7690682317147e-06
 638    5.4854155980466e-05
 639    -0.0030174495938461
 640    -0.0063797754384769
 641    -0.021702190744441
 642    0.0032083182317123
 643    0.0054645674229765
 644    -0.0030409728854251
 645    -0.0065962200053661
 646    -0.010209018350953
 647    -0.0036403066120885
 648    -3.9354448350753e-05
 649    -0.00062167042410715
 650    -0.00048677081205836
 651    -0.00030434550823976
 652    0.00013103503495003
 653    0.0035888724810841
 654     0.018167919792825
 655    0.00034656064035334
 656    -0.00028419282456793
 657    4.7152528963738e-05
 658    0.00053986805044439
 659    0.0052421772767434
 660    -0.00064990430410536
 661    -0.00060614598564664
 662    -0.00017492203286367
 663    0.0062230470869599
 664     0.015473876299918
 665    0.0012169283546377
 666    0.0010396236074343
 667    -0.00056506107657434
 668    -0.0017859269634068
 669    0.0045785781294228
 670    -0.00015608492014541
 671    -0.00017175952384944
 672    0.00022572421912387
 673    0.0013781319098267
 674     -0.01185332838168
 675    -8.4885559966955e-05
 676    0.00062020189625683
 677    -0.00021779964456716
 678    0.0019640718151213
 679       0.0413387050213
 680    0.00027155219108734
 681    7.9018656220695e-05
 682    0.00017285114921806
 683    0.0024280772195689
 684    -0.003532429995846
 685    -0.034080744404532
 686    -0.011320254253875
 687    0.0056413968846308
 688     0.010989037828059
 689    -0.046059533553941
 690     0.019652678146577
 691     0.028348986131652
 692    -0.00058060858859983
 693    0.0001921413615322
 694    0.00021322285882028
 695    5.9534501685741e-05
 696    0.00042537959223281
 697     0.014271237187581
 698     0.021264258027533
 699      0.18855002488619
 700    -0.0022860012303593
 701    -0.015450825051125
 702    -0.0028392265133342
 703    -5.9708555828768e-05
 704     0.035337525045478
 705    0.0027858609206195
 706    8.558789325892e-05
 707    -0.00059612462232208
 708    6.5577199705696e-05
 709    0.0002398268992429
 710    -0.00030683187634379
 711    -0.0050249970512547
 712    -0.010437510135347
 713    -6.2737617988354e-05
 714    0.00050489093424078
 715    -0.0010118180926653
 716    -0.010102736296506
 717     -0.10545228362138
 718    0.0003026717175713
 719    -0.00024044531180909
 720    -0.00071335008268723
 721    -0.010440837294031
 722     -0.12983143198319
 723    -0.00031607561319933
 724    0.00013462290865997
 725    0.00051884820262544
 726    0.0013715819799553
 727     0.061755598540084
 728    -0.00093008735701761
 729    -0.0002372188598555
 730    0.0003642078680497
 731    -0.0010227857823558
 732    -0.039000733867054
 733    -0.0004982732694412
 734    7.3036169869891e-05
 735    8.5779254050851e-05
 736    0.00010034090607407
 737    -0.0018451957722992
 738    0.0001144752666035
 739    -0.00018002867179783
 740    -0.00047023977894193
 741    0.00035638624428827
 742    -0.0019334925270647
 743    0.0053190452145742
 744    -0.0019880324579738
 745     0.001158015130033
 746    -0.0023565125608707
 747    -0.0055724463299808
 748    0.0028146535376578
 749    -0.0094957983885299
 750    2.839997628578e-05
 751    0.00017517208082586
 752    -7.9620863002428e-05
 753    -9.3029786877758e-05
 754    -1.3229240477967e-05
 755    -0.0012364032550006
 756    -0.0024047197230753
 757    -0.013687705348438
 758    0.0028502358224779
 759    -0.00059884629206391
 760    0.0010646607619119
 761    -0.0048218533873082
 762    0.0020590858818397
 763    -0.0052949985201668
 764    1.7512674692799e-05
 765    -8.8740582832491e-05
 766    -0.00037848993565944
 767    0.00018697252235535
 768    0.00037856739194735
 769    0.0013852311296463
 770    -0.0014580704383924
 771    -0.00023361072325346
 772    -0.00028414672206381
 773    -8.8893115004281e-05
 774    0.0039539949535971
 775    0.00056557060180061
 776    0.00094847192388077
 777    0.0005994371370475
 778    -0.00063811244185776
 779    0.0017099059846434
 780     0.027969279938378
 781    -0.00036040301943604
 782    0.00038425230832913
 783    0.0003951410203244
 784    0.00068881716926897
 785    -0.020565221760766
 786    -0.00017533030804171
 787    0.0001837724916809
 788    -0.00019482400949921
 789    -8.9394211420996e-05
 790    0.0097075685664935
 791    -9.3761628851089e-06
 792    -5.1888356843351e-05
 793    3.5107738692647e-05
 794    -0.00065234654540921
 795    0.0049456439866166
 796    7.0223454121657e-05
 797    -3.6664948693111e-05
 798    -1.8221124587959e-06
 799    0.0027027491049778
 800    -0.0035864100564546
 801    -0.049515082594314
 802    0.00099471254893571
 803    0.0050263166445257
 804    0.0032930798995363
 805    0.0068446083027774
 806     0.017047606586398
 807     0.018860680374829
 808    0.0001076595446949
 809    -8.8783807095668e-05
 810    -0.00012748917610822
 811    -3.2236842643661e-05
 812    -0.00028873599497568
 813    -0.0059841948256211
 814    -0.0081552498347627
 815    -0.086406665560347
 816    0.0039377201875727
 817    0.0026493186041244
 818      0.00542842211699
 819    0.0023019999342171
 820    0.00058742282188889
 821    -0.025707501645999
 822    0.00021741383748245
 823    0.00038927509801113
 824    -0.00047914645685449
 825    -9.1503767452051e-05
 826    0.00014530496128797
 827    0.0022626124753774
 828     0.038945244580352
 829    0.00060974896524026
 830    -0.00067382361655629
 831    -0.00091398099439308
 832     0.010183721241758
 833     0.090273659531543
 834    0.00082648174137341
 835    0.00029032815843229
 836    -0.00053630431636184
 837    -0.0036429660548978
 838    0.0084553155930487
 839    -0.00031717295969853
 840    -0.00035423646624608
 841    -0.00082991309322951
 842    0.00042113493096231
 843     0.015749617442737
 844    -8.0412052931713e-05
 845    -0.00013704626997534
 846    0.00017302961014627
 847    -0.00077045068491451
 848     0.017212394879168
 849    4.3775450626542e-05
 850    -0.00016148160250545
 851    0.00011784659700473
 852    -0.00082891305877123
 853     0.042951056181145
 854    8.6131286165026e-05
 855    0.00044231053226438
 856    0.00033468760523519
 857    0.0067140541032113
 858    -0.008350163204087
 859     -0.14108098157017
 860    -0.0099574793961558
 861    0.0071193446759923
 862     0.001931805923142
 863    -0.022166742415068
 864      0.01831078757075
 865    -0.00052598663241219
 866    -7.6682559287449e-06
 867    0.00041244552732385
 868    0.00011732422357651
 869    0.00044489757893416
 870    -0.00050206047942068
 871    -0.0059066383939258
 872    -0.0065190333344849
 873     -0.09428517772545
 874    0.0050162788824069
 875     0.014733940601586
 876    -0.0039422638822079
 877    -0.028527022616546
 878    -0.047443372531032
 879    0.0094077242693869
 880    0.00025346390565776
 881    -0.00021522523548545
 882    0.00018595029523928
 883    -0.00040672628661417
 884    -2.2250370393688e-06
 885    -0.0023434721415339
 886     0.029215470858668
 887    0.0012131446324366
 888    -0.00041012217691973
 889    -0.00070057627040973
 890    0.0048687716285494
 891    -0.025824743975717
 892    -0.00032921502576713
 893    0.00048518583663618
 894    0.00091319639337254
 895    0.0096252674604705
 896      0.17293566157333
 897    -0.00092554134446342
 898    -0.00091845372612628
 899    -5.807294720922e-05
 900    -0.0030079997562996
 901     0.043414995805513
 902    -0.00050276002356224
 903    0.0006861303373872
 904    -0.00012730595697706
 905    0.0027277227350772
 906     0.068767529301523
 907    0.00056386742180181
 908    -0.00034622473536376
 909    -0.00017469372845916
 910    -0.0041303206379348
 911     0.077050464498549
 912    -6.8942141601404e-05
 913    -0.0004944624288074
 914    0.00028624562076201
 915    -0.0016727243944684
 916    0.0024040649353017
 917     0.027066825893388
 918    0.0006717184166529
 919    0.00027056026925291
 920    -0.00080235594254814
 921    0.0014226399375448
 922    0.0052347414220974
 923    0.0047630005072844
 924    1.0228641503367e-05
 925    -5.9243707149251e-05
 926    -0.00024628590366458
 927    0.00019334347856834
 928    -2.8691823506453e-05
 929    0.0020428811173835
 930     0.001887356513813
 931     0.041326587389254
 932    -0.004172744988787
 933    0.0035455087770035
 934    0.0031076769334771
 935     0.010639696330493
 936    -0.0071369209327756
 937    -0.012328517432737
 938    -0.00017004744454755
 939    -0.00049368699644151
 940    -0.0005302797627877
 941    0.0002660307521546
 942    0.00036809390318212
 943    -0.0029275693278522
 944    -0.035553458225931
 945    0.00032877900527381
 946    0.00040840659480883
 947    -0.00035899551756459
 948    -0.0031195927733196
 949    -0.021172800399544
 950    -0.00052827849355224
 951    -0.00070158796484503
 952    0.00058521867055667
 953    -0.0056882292863254
 954    -0.048328247116584
 955    0.00052705157030626
 956    0.00059677028997735
 957    -0.0003193872457178
 958    -0.0014250791551707
 959    -0.013054257834556
 960    -0.00026336395515065
 961    -0.00024803652106607
 962    -0.00020278648107485
 963    -0.00029219134286079
 964    -0.0093649566403808
 965    -5.8133072730276e-05
 966    -0.00013370202092579
 967    -4.2608813803774e-05
 968    0.00021611731987482
 969    -0.0052402186984097
 970    5.7788749942579e-05
 971    0.00017779143869329
 972    0.00017517979776383
 973    0.0044522687706917
 974    -0.0050025373989236
 975    -0.093033655906735
 976    0.00024936818342835
 977    0.0031196128000636
 978    0.0085010591212689
 979    -0.0060185946585371
 980    -0.0098826848416445
 981    0.0080112633643876
 982    -0.00043823481675662
 983    -0.00033165188879293
 984    -0.00030097840459567
 985    0.00020981748491655
 986    0.00031824852521306
 987    -0.0054378036371353
 988    -0.010513253622593
 989    -0.056091911163479
 990    0.0059596242206733
 991    0.0099159872972145
 992    0.0086277563830298
 993    -0.0017456262641794
 994    -0.021857196518359
 995    -0.019805032270323
 996    0.0002701365682342
 997    0.00038909421775271
 998    0.00033458311118433
 999    0.00027913773775084
 1000    -8.2635916208127e-05
 1001    -0.0046220176993222
 1002     0.018660240095564
 1003    0.0010497159670877
 1004    0.00028624016889427
 1005    -0.00034475914099179
 1006    0.0029365469808485
 1007     0.063294213335203
 1008    -9.1339615964434e-05
 1009    -7.2925530166969e-05
 1010    0.0013411548931961
 1011     0.004123731838144
 1012     0.043885232315439
 1013    0.00010599557225485
 1014    -0.00063066566492653
 1015    -0.00023815889184016
 1016    -0.0028571629777607
 1017     0.018164533201733
 1018    -0.00041531118853992
 1019    0.00075258369903681
 1020    -0.00043495379662767
 1021     0.004930070505852
 1022     0.048639418686778
 1023    -4.1314663031173e-06
 1024    -4.6074385645695e-05
 1025    0.00078379265255329
 1026    -0.0072227552262106
 1027     0.040065454608974
 1028    -0.00069580459327401
 1029    -0.00023504669856265
 1030    0.00049048887796576
 1031     0.013492818535581
 1032    -0.021393788147923
 1033     -0.26337488975925
 1034    -0.0093940314382406
 1035    -0.0038477131174558
 1036    0.0057346446686966
 1037    -0.048556028254695
 1038    -0.025826030743365
 1039     0.025921777926943
 1040    0.00091663947384891
 1041    3.1105886977194e-05
 1042    -4.7811865222278e-05
 1043    0.0012446748080322
 1044    -0.00034975392643273
 1045    -0.0031958098383972
 1046    -0.0057348760676203
 1047    -0.031455330750454
 1048    -0.0098968246627739
 1049    -0.013858588560733
 1050    0.0033461658135405
 1051     0.021269490737792
 1052     0.042254914179289
 1053    8.5659311516256e-05
 1054    -4.4366087666796e-05
 1055    0.0010773038839441
 1056    2.5349184668008e-05
 1057    -0.00036328961541082
 1058    -0.0004478863861601
 1059    0.0023241943388037
 1060    -0.0093255965603716
 1061    2.8633593285181e-06
 1062    0.00064221709275478
 1063    -0.0013367656932903
 1064    0.0066217562434277
 1065     0.091975196561109
 1066    0.00091829295920632
 1067    -8.716212245012e-05
 1068    -0.00016975522922594
 1069    0.00065816101281128
 1070    -0.024189594192055
 1071    0.0017048060915446
 1072    -8.8110510034773e-06
 1073    0.00026347404701329
 1074    0.0024807750879184
 1075      0.10599055702496
 1076    0.00027014654948649
 1077    8.2723385860548e-05
 1078    -0.0010969146625167
 1079    -0.0029519407574847
 1080      0.15359366300917
 1081    0.0012376474599748
 1082    -2.5527696542556e-05
 1083    0.0003907487501656
 1084    -0.0056832358954142
 1085       0.1428483677932
 1086    0.00059018540967633
 1087    -0.0016285946777855
 1088    -0.00032694607656338
 1089    0.0067292322627766
 1090    -0.0073725927066802
 1091     -0.14081377429535
 1092    -0.014657592631202
 1093    0.0049407828065282
 1094    0.00092998062334051
 1095    -0.052804314091086
 1096      0.01543376049189
 1097    -0.0054634782104458
 1098    0.00041771788168779
 1099    -0.00014935578961731
 1100    -0.00032363385417292
 1101    -0.00044395969656644
 1102    -0.00053159259496105
 1103     0.011562835644921
 1104     0.015561582211253
 1105      0.16887871470499
 1106    0.0026403852192514
 1107    -0.0091482941249384
 1108    0.0052928515541599
 1109    0.0051678696569758
 1110     0.017407458932353
 1111    -0.0065028360658686
 1112    -0.00070987934505297
 1113    -0.0007509452393543
 1114    0.00046591868258597
 1115    -3.6550969533169e-05
 1116    -0.00014582122127488
 1117    -0.0015323828520293
 1118    -0.060898949064999
 1119    0.00041707838237639
 1120    -0.00036759654083057
 1121    -0.00068163867163028
 1122    -0.0087342318555561
 1123    -0.082266840348393
 1124    -7.2712543504406e-05
 1125    -0.00012521895338208
 1126    0.0010616528858172
 1127    -0.0086468473952254
 1128    -0.089292708178036
 1129    0.00055246996684013
 1130    0.00063606153015512
 1131    0.00010768686295388
 1132    -0.0018033162542131
 1133     0.032487536959365
 1134    0.00054425740404203
 1135    0.00016146890124137
 1136    0.0006878971801751
 1137    0.0021066447743951
 1138     0.011714248602506
 1139    -0.00017108518789978
 1140    -8.1770079322266e-05
 1141    0.00035959466916907
 1142    0.0014842783637444
 1143        0.132046303039
 1144    -0.00048309750173924
 1145    -0.00095460074098206
 1146    -0.00052577633876827
 1147    -0.0026982575646141
 1148    0.0048950218467507
 1149     0.038709869468086
 1150    -0.0015478454529144
 1151    0.00080521442443411
 1152    0.0021063333699962
 1153    0.00015573669387602
 1154    0.0094324914823521
 1155    -0.0031679190921624
 1156    -3.3649707631136e-05
 1157    -0.00014947774447942
 1158    0.00024336802843266
 1159    -5.5872937624159e-05
 1160    -0.00026659944234113
 1161    0.0032144344569987
 1162    0.0051828842827849
 1163      0.04090693376845
 1164    0.0027350673416782
 1165    -0.00095715777428063
 1166    -0.0032082747412025
 1167    -0.011412944953368
 1168    0.0015075433430051
 1169     0.013915930463079
 1170    2.7919181759598e-05
 1171    -0.0011063240904048
 1172    0.00085666098058874
 1173    -2.5012483906256e-05
 1174    -0.00071343957438621
 1175    -0.0082212371499196
 1176    -0.031908282226591
 1177    0.0011091154441188
 1178    -0.0011634924835229
 1179    0.00020698738896546
 1180    -0.0076105869362361
 1181    -0.049127790748376
 1182    -0.00057669766258443
 1183    0.0014507372319421
 1184    0.00070989302795209
 1185    -0.0082212691694973
 1186    -0.033296811991473
 1187    -0.00067073251566763
 1188    -0.00055801302023303
 1189    -0.0006733103970661
 1190    -5.8628419854803e-05
 1191    -0.010080097357212
 1192    0.0001554399973757
 1193    -8.4444153557546e-05
 1194    0.00018081114219507
 1195    0.0012945201603471
 1196    -0.0076691564083752
 1197    -0.00020873521713296
 1198    6.2074105157033e-05
 1199    -0.0001728769608725
 1200    -0.0026999153313853
 1201     -0.01835791159889
 1202    0.00021018724109278
 1203    -0.00017085511035026
 1204    -0.00011874514601544
 1205    0.0035466393629899
 1206    -0.0030420565498509
 1207    -0.075863250707782
 1208    -0.0035850966840337
 1209    0.0097540138280858
 1210    -0.0026765601912817
 1211    -0.020526983554545
 1212     0.027927844959238
 1213    -0.013314704711223
 1214    -0.00021650952931862
 1215    -9.8476113363317e-05
 1216    0.00013911580178143
 1217    4.1650674220205e-05
 1218    0.00016092273383447
 1219    -0.0083623093110276
 1220    -0.011415759448196
 1221     -0.12203115636605
 1222    -0.0064698142849832
 1223    0.0037834162462192
 1224    -0.0066494119997771
 1225     0.027302268944637
 1226     0.002186613130918
 1227    0.0026788017133134
 1228    -0.00054209208183693
 1229    0.00060601094976639
 1230    -0.00013607944079688
 1231    0.00019258397330561
 1232    0.00045559533890001
 1233     0.013954478846665
 1234      0.11502331111643
 1235    0.00010199346389096
 1236    0.00067948818851244
 1237    -0.00061081517130934
 1238    0.0021682041496024
 1239     0.059461243639284
 1240    0.0011645716522928
 1241    -0.0003286902723696
 1242    -0.00094779437855268
 1243    -0.0045450893518471
 1244     0.028232632512044
 1245    0.0012780940027608
 1246    -0.00034280841997899
 1247    0.0002127710638224
 1248    0.0009385326839629
 1249     0.030057984560102
 1250    -0.00036837020225146
 1251    -0.00018736100588986
 1252    9.0269444668965e-05
 1253    -0.00011662397599389
 1254     0.049612490430522
 1255    -0.00029775278541377
 1256    0.00061057752275845
 1257    -0.00017088586803518
 1258    -0.0020518976450033
 1259     0.036347368057818
 1260    -0.0001741859630644
 1261    -1.3344992835454e-05
 1262    -9.5713279909089e-05
 1263    0.0033099000817518
 1264    -0.0024928989387103
 1265    -0.087709955898455
 1266    -0.010448212869684
 1267    0.00096459144355744
 1268    0.0036832432536389
 1269    -0.012861925825652
 1270    -0.011793381090342
 1271     0.025503943169719
 1272    0.00058210226195352
 1273    -3.5990445886017e-05
 1274    -0.00051078998223769
 1275    -0.00050413179429938
 1276    0.00026817275431723
 1277    -0.012370688289494
 1278    -0.019398445218004
 1279     -0.15742578081421
 1280    -0.015186885222086
 1281     0.011183317152104
 1282    -0.0040746919857609
 1283     0.032510828557891
 1284    -0.022577194739304
 1285    -0.0063045005735609
 1286    -5.6213227565266e-05
 1287    0.00044820499541955
 1288    6.0978161096837e-05
 1289    0.00056459123682748
 1290    -0.00056757873726194
 1291    0.0084902754364603
 1292      0.12302400475053
 1293    -0.001368176924702
 1294    0.00034145452856788
 1295     0.000527956853514
 1296    0.00047924070280374
 1297     0.065967965435001
 1298    0.0011088069367887
 1299    0.00054455194174893
 1300    -0.0013493787717849
 1301    0.0086477209497068
 1302     0.080112840841917
 1303    1.0883343791771e-05
 1304    -0.00088338595267411
 1305    -0.000295313534165
 1306    -0.0027655886493109
 1307     0.029152462763734
 1308    9.3621761159213e-05
 1309    0.0010556684297711
 1310    0.00058701887013594
 1311    -0.0083272333130671
 1312     0.024428807938011
 1313    -0.00010927896058888
 1314    -0.00011659213530337
 1315    0.0006052397941427
 1316    0.0062265259245187
 1317     0.054705875321851
 1318    -0.00086284116097405
 1319    -0.00016765415424786
 1320    0.00017525249287039
